disp_x,disp_y,disp_z,elastic_strain_xx_nodal,elastic_strain_xy_nodal,elastic_strain_xz_nodal,elastic_strain_yy_nodal,elastic_strain_yz_nodal,elastic_strain_zz_nodal,id,plastic_strain_xx_nodal,plastic_strain_xy_nodal,plastic_strain_xz_nodal,plastic_strain_yy_nodal,plastic_strain_yz_nodal,plastic_strain_zz_nodal,strain_xx_nodal,strain_xy_nodal,strain_xz_nodal,strain_yy_nodal,strain_yz_nodal,strain_zz_nodal,stress_xx_nodal,stress_xy_nodal,stress_xz_nodal,stress_yy_nodal,stress_yz_nodal,stress_zz_nodal,vonmises_stress_nodal,x,y,z
-0.0081863575262568,-0.0026003759530796,-2.1966014330408e-05,-1.4243147993344e-06,-3.2070779574579e-06,-3.8580095237129e-07,-4.5386510932091e-06,-2.6050695021942e-07,2.6876613933166e-06,0,-1.6601428803734e-06,-7.3127561018935e-06,-8.9893940809357e-07,-1.0026912515401e-05,-8.3824781878912e-07,1.1687055395774e-05,-3.0827370825089e-06,-1.0518313234946e-05,-1.2845451330241e-06,-1.456718853998e-05,0,1.4374621123262e-05,-0.00029852255182728,-0.00024669830441984,-2.9676996336253e-05,-0.00053808688212534,-2.0038996170725e-05,1.7783309145875e-05,0.0013760766377397,84.677680969238,43.337253570557,9.5375633239746
-0.011212275213875,0.0012607668492465,6.5494100642388e-05,2.5579280097532e-06,-9.2724919319144e-06,2.5148681906735e-07,5.0218722993752e-06,-5.5037335502547e-08,1.3009044972738e-07,1,1.3352320595504e-06,-3.0921533794647e-05,2.0852081609739e-06,9.7145377125441e-06,-3.6312756517301e-07,-1.1049769772094e-05,3.9040640901326e-06,-4.0195474440057e-05,2.3365049091006e-06,1.472561180591e-05,0,-1.0919785137187e-05,0.00064156508299192,-0.00071326861014727,1.9345139928258e-05,0.00083109925911669,-4.2336411925036e-06,0.00045480834760532,0.0014189865130877,93.002708435059,49.118301391602,9.3636016845703
-0.0087099558308952,0.0026050307452241,-8.1618041805729e-05,9.6765656513802e-07,-6.35814044574e-06,-1.3563515977057e-08,1.7583064156407e-06,1.6155241805637e-06,9.5705731505134e-07,2,-1.5125635400631e-06,-2.090478432907e-05,1.2446913688178e-06,4.9056319788465e-06,3.3833033810857e-06,-3.3930684387834e-06,-5.380404867031e-07,-2.7264115306856e-05,1.2306548895974e-06,6.6571121317127e-06,0,-2.4360513491795e-06,0.00028691706053927,-0.00048908772659539,-1.0433473828505e-06,0.00034773627980871,0.00012427109081259,0.00028610173360953,0.0014598985872471,96.159034729004,44.361763000488,9.8859262466431
-0.007143706878202,-0.0015041634048397,-0.00022984786148953,-2.8308017957056e-06,-4.620042827543e-06,7.4783535039178e-07,-2.3996727672815e-06,9.3661233765969e-07,-1.1536534759822e-06,3,-2.3427652219188e-06,-1.4617961917285e-05,2.6485799844093e-06,1.4002327826408e-06,1.9542489554731e-06,9.4253243927808e-07,-5.1690844202238e-06,-1.9238579602217e-05,3.3959735780417e-06,-1.0038848607619e-06,0,-2.1115875798364e-07,-0.00058606906345636,-0.000355387909811,5.7525796183983e-05,-0.00055290529203912,7.20471028969e-05,-0.00045705765424687,0.0013629778661981,86.413185119629,41.206703186035,5.285192489624
-0.0098924601865425,0.0020885327011024,8.7533082493824e-05,1.9367528972399e-06,-9.7403343124314e-06,1.4613951153677e-06,7.637471180983e-06,2.4698584710741e-07,-1.5353019137359e-06,4,-2.656735840582e-06,-3.7203967621054e-05,6.0907528200345e-06,2.0442314496403e-05,6.1118815958036e-07,-1.7785578655821e-05,-7.0722781655824e-07,-4.6948343631289e-05,7.5517008735662e-06,2.8067020188934e-05,0,-1.9320870207889e-05,0.00061276496312347,-0.00074925648557164,0.00011241500887444,0.0010512817541806,1.8998911315955e-05,0.00034568382381764,0.0015147332197142,94.822540283203,46.625350952148,4.6589417457581
-0.0073281253151596,0.0029806023285728,6.0338220270117e-05,-7.9325251928403e-07,-4.8403302070845e-06,1.1577379745422e-06,6.9914540254018e-06,1.8366417020453e-06,-4.9510591393441e-07,5,-7.6442549577468e-06,-1.6101845826161e-05,4.2126706469955e-06,1.7207916562292e-05,2.8577713416546e-06,-9.5636616045451e-06,-8.4324131459945e-06,-2.0946052650305e-05,5.3700106630248e-06,2.4194274413099e-05,0,-1.0058765674921e-05,0.00026800532114258,-0.00037233309285266,8.9056767272477e-05,0.00086682890150303,0.00014128013092656,0.00029093967540024,0.0013300877017596,97.641479492188,41.383525848389,4.9975805282593
-0.030619831206457,-0.049990863263515,0.0011928829971011,-3.8641418310916e-07,-1.9083050008665e-06,-2.1056739451934e-07,-9.4426635465162e-07,-4.9426228716389e-08,5.9956026026601e-07,6,0,0,0,0,0,0,-3.8641418310916e-07,-1.9083050008665e-06,-2.1056739451934e-07,-9.4426635465162e-07,0,5.9956026026601e-07,-7.1904183940787e-05,-0.00014679269237434,-1.6197491886103e-05,-0.00011481588944405,-3.8020175935684e-06,3.9400040111485e-06,0.00031353236714351,40.12686920166,100,11.690929412842
-0.030654623407369,-0.05,0.001181089325125,1.0467745380969e-06,-3.4575070523662e-06,2.2811921367077e-08,-1.9035776737387e-06,-7.9458113265585e-08,4.1878773358006e-07,7,0,0,0,0,0,0,1.0467745380969e-06,-3.4575070523662e-06,2.2811921367077e-08,-1.9035776737387e-06,0,4.1878773358006e-07,5.5250998965439e-05,-0.00026596208095124,1.7547631820829e-06,-0.00017169917117576,-6.1121625588912e-06,6.944321694909e-06,0.00059086548961856,35.706111907959,110,9.8139038085938
-0.030605588318156,-0.049985549822028,0.0011803190516314,-2.5479152086886e-06,-3.7559020358332e-06,-1.815233996169e-07,-1.2405707636803e-06,-3.830979113944e-07,1.3822252899934e-06,8,0,0,0,0,0,0,-2.5479152086886e-06,-3.7559020358332e-06,-1.815233996169e-07,-1.2405707636803e-06,0,1.3822252899934e-06,-0.00033481620926694,-0.00028891554121794,-1.3963338432069e-05,-0.00023425125195861,-2.9469070107261e-05,-3.249770936832e-05,0.00061088088709862,35.468444824219,99.999954223633,10.003314971924
-0.030624948615746,-0.049986061625275,0.00119289937931,-2.5468409560526e-07,-2.6575834234337e-06,-6.8650907405028e-07,-1.1677893457028e-06,-1.9793834013975e-07,4.8232071216353e-07,9,0,0,0,0,0,0,-2.5468409560526e-07,-2.6575834234337e-06,-6.8650907405028e-07,-1.1677893457028e-06,0,4.8232071216353e-07,-7.3830664804898e-05,-0.00020442949411028,-5.280839031156e-05,-0.00014406953019702,-1.5226026164596e-05,-1.7137987284222e-05,0.00045234131947733,36.998664855957,99.999954223633,15.413834571838
-0.030658555922379,-0.05,0.0011862797602573,1.3443319900964e-06,-1.7874498545022e-06,-1.0850827973161e-07,-1.22306801493e-06,-1.9413390759023e-07,1.6418326786367e-07,10,0,0,0,0,0,0,1.3443319900964e-06,-1.7874498545022e-06,-1.0850827973161e-07,-1.22306801493e-06,0,1.6418326786367e-07,0.00011987826325915,-0.00013749614265402,-8.3467907485852e-06,-7.76140448198e-05,-1.4933377506941e-05,2.9097592318173e-05,0.00033023101785265,39.402030944824,110,14.81520652771
-0.014113731836385,-0.046748707616101,0.00056574835930115,7.1304654225094e-06,-2.9068096320768e-06,-4.8017522491564e-07,-3.4610820585774e-06,2.5482687649485e-06,-1.1979598234746e-07,11,9.4056866350593e-06,-4.7942757061367e-06,-4.2878161488629e-07,-6.302614434642e-06,3.0105146250773e-06,-3.1030722004174e-06,1.6537668895456e-05,-7.6986124895211e-06,-9.094129108158e-07,-9.7652346148082e-06,0,-3.2228468990629e-06,0.00075328122759214,-0.00022360074092899,-3.6936555762741e-05,-6.1453194029923e-05,0.00019602067422681,0.00019556881183392,0.0011422786601323,16.073595046997,53.577640533447,5.6998181343079
-0.018708720776849,-0.042623290597467,0.00068063575201967,1.6526420999775e-06,-1.2726892466742e-08,-2.8408693481348e-07,-5.1676312175737e-06,1.015025931816e-06,-8.6507099155928e-08,12,4.4671095011137e-06,-1.6347019887906e-06,-3.7491813717336e-07,-4.4722417178494e-06,1.0920035672981e-06,5.1322167356757e-09,6.1202765958657e-06,-1.6460164091203e-06,-6.5914582525133e-07,-9.6403982664084e-06,0,-8.1374546209533e-08,-8.0652312506665e-05,-9.7899172821091e-07,-2.1852841139499e-05,-0.00060528872154906,7.8078917832003e-05,-0.00021443302013231,0.0011054088175298,23.202745437622,61.267269134521,10.076690673828
-0.014725301286024,-0.047867095397266,0.00060686307466107,5.4624463483317e-06,-2.6422894045732e-06,2.1411030246393e-07,-3.2784525863965e-06,9.0144579583398e-07,1.3589056882797e-06,13,6.0172940856315e-06,-4.8824474030324e-06,2.0832580115562e-07,-4.5621368282517e-06,1.2358429717838e-06,-1.4551572573798e-06,1.14814200456e-05,-7.5231457009606e-06,4.2220062896807e-07,-7.8422739448866e-06,0,-9.6246650498079e-08,0.00062458622584561,-0.00020325303112101,1.6470023266456e-05,-4.779061528733e-05,6.9341984294922e-05,0.00030892925199545,0.0011222355660909,14.278718948364,54.593982696533,11.268663406372
-0.013139623174949,-0.044932225541084,0.00053182083489908,1.0258854986727e-05,-4.6575496012387e-06,2.4074597580567e-07,-2.1164897051244e-06,6.645192787996e-07,2.2178197299785e-07,14,1.1123547055846e-05,-6.3062019187015e-06,3.0328643389884e-07,-6.8638208453107e-06,9.6172151710307e-07,-4.259726210535e-06,2.1384255336359e-05,-1.0960904705836e-05,5.4385687361108e-07,-8.9821653342272e-06,0,-4.0379427475308e-06,0.0012716896482829,-0.00035827304624913,1.8518921215821e-05,0.000319740056602,5.1116867599969e-05,0.00049960710876525,0.0011414402786538,19.178918838501,52.142066955566,10.889401435852
-0.012311620473539,0.00065212434060013,0.00019216693226881,2.8067603776731e-06,-6.0388753489914e-06,1.2998810650161e-06,1.0663517424949e-06,2.1638445246581e-07,-1.7311216631113e-08,15,4.0715035368236e-06,-1.8598512514248e-05,2.8175349143338e-06,1.1518316416134e-06,7.9868055353561e-07,-5.2233351784371e-06,6.8847739628958e-06,-2.4636701945172e-05,4.1170486621848e-06,2.2116255431795e-06,0,-5.2405986025384e-06,0.00043835469656351,-0.00046452887299934,9.9990851155085e-05,0.00030447710924212,1.6644957881986e-05,0.00022111842007858,0.0013488826237495,91.035720825195,51.216293334961,4.5235738754272
-0.0088999611316398,0.00055745398820699,2.732724657382e-05,-2.539586773712e-07,-8.3964026471177e-06,1.0308931915905e-06,5.124056193213e-06,1.8456004117494e-06,-2.0327695248859e-06,16,-3.1679991807244e-06,-2.6133757133265e-05,2.7821376346753e-06,1.342606301079e-05,3.9221683151769e-06,-1.0258063830065e-05,-3.4135004812822e-06,-3.4532760052819e-05,3.8121978652307e-06,1.8541577987904e-05,0,-1.2290749515666e-05,0.00014415671660352,-0.00064587712670136,7.9299476276194e-05,0.00055785016818691,0.00014196926244226,7.3251129485374e-06,0.0013712667465387,90.837783813477,44.855133056641,0
-0.010296045956144,0.0018417915726187,-6.1880080337635e-05,3.0979445663589e-06,-9.0213471451147e-06,-7.1737379898646e-07,4.458017886699e-06,4.1436798207909e-07,3.2127004395567e-07,17,1.8881886062768e-06,-2.9307287796273e-05,-2.6481545839714e-06,7.3945275415713e-06,1.1186089273293e-06,-9.2827161478481e-06,4.9959602073641e-06,-3.8329769377552e-05,-3.3659410941231e-06,1.1842715102111e-05,0,-8.9614428124619e-06,0.00069275914916301,-0.00069394978039344,-5.5182599922036e-05,0.00079738017380455,3.187446015993e-05,0.00047916880128583,0.0014037338297175,94.32438659668,47.388717651367,14.653988838196
-0.012370119571545,0.00035839394647503,-6.0501125551965e-05,2.789731951344e-06,-5.080537152708e-06,-9.0054214223373e-07,5.5474763493931e-07,-1.4489227689632e-07,7.5197217285588e-07,18,3.4704605916488e-06,-1.5264663615262e-05,-1.6500161608156e-06,-8.1712979618036e-07,-1.2605684316116e-06,-2.6533307954684e-06,6.2656075649157e-06,-2.034421014754e-05,-2.5503198719993e-06,-2.677372001871e-07,0,-1.9014186055894e-06,0.00045092852082296,-0.00039081055020831,-6.9272472479517e-05,0.00027900665033029,-1.1145559761256e-05,0.00029417776863156,0.0013345543447963,90.862480163574,51.440776824951,14.8116979599
-0.030688520908967,-0.05,0.0011625178399829,7.5103276499136e-06,-4.5366956606193e-06,8.5143925318223e-07,-3.7513038410217e-06,-2.662347958817e-07,-1.8652432003203e-07,19,7.2335369141868e-07,-4.035922028267e-07,7.1562905816024e-08,-5.281435114483e-07,-2.1643225412574e-08,-1.9521017997038e-07,8.2336816096454e-06,-4.9402872781159e-06,9.2300290447909e-07,-4.2794477135465e-06,0,-3.8173440723901e-07,0.00078382325127373,-0.00034897658927841,6.5495327167864e-05,-8.2456094182827e-05,-2.0479599683208e-05,0.00019175771512407,0.00099487687486528,30.111413955688,109.95296478271,10.060976982117
-0.030712333050437,-0.05,0.0011514220578107,6.2867192906668e-06,-3.5905734355594e-06,-6.1875179991628e-07,-3.6221258198095e-06,-1.6305527732228e-07,-4.4372177670351e-07,20,6.9425048934714e-07,-8.8071844755718e-07,-1.8564466146337e-07,-6.6682789230264e-07,-4.1712593515012e-08,-2.74225970445e-08,6.9809715895311e-06,-4.4712910814498e-06,-8.0439573786577e-07,-4.2889547795886e-06,0,-4.7114511578871e-07,0.00061172100471401,-0.00027619795658149,-4.7596292301252e-05,-0.00015049784993801,-1.2542713640175e-05,9.3994768762448e-05,0.00099605384099661,26.884387969971,109.69361114502,4.9047927856445
-0.030578284222586,-0.04995665936876,0.0011715030835908,1.860610485215e-06,-5.3636223456277e-06,3.4225307240484e-07,-3.1287443789563e-06,-5.6229641023678e-07,5.1342020093262e-07,21,2.845519350503e-07,-8.1639216998138e-07,5.2427912339229e-08,-4.0413004183025e-07,-7.6687261892623e-08,1.1957810677995e-07,2.1451638048772e-06,-6.1800139510934e-06,3.9468125637674e-07,-3.5328755417604e-06,0,6.3299804407453e-07,9.9582708892963e-05,-0.00041258633427906,2.6327159415757e-05,-0.00028421381912022,-4.3253570018214e-05,-4.047312974914e-06,0.00096833055724308,30.786497116089,99.92839050293,8.4283027648926
-0.030747504522374,-0.05,0.0011481523114905,6.8525629833028e-06,-2.6027732196485e-06,-1.3705235775258e-07,-2.8390863551027e-06,2.5425555649168e-07,1.8361581752451e-07,22,2.5744048399426e-06,-1.8833009658858e-06,8.9727922529108e-08,-2.1866647576262e-06,9.0230682594562e-08,-3.8774008231642e-07,9.4269728180243e-06,-4.4860615399169e-06,-4.731593283365e-08,-5.0257542328203e-06,0,-2.0412613947932e-07,0.00076926017827663,-0.00020021332458835,-1.0542489057891e-05,2.3748690706979e-05,1.9558119730129e-05,0.00025626424244753,0.0010493711954332,24.654483795166,109.43200683594,10.279599189758
-0.018802387849249,-0.04290792171446,0.00070159817338919,5.9539455357941e-07,8.5595001343688e-07,-1.8955349654215e-07,-5.7210862047054e-06,5.8716273711124e-07,3.8802088231124e-07,23,1.8515775319522e-06,5.3193802873903e-07,-3.5566513708712e-07,-3.0681154223955e-06,2.6063425817552e-07,1.2165378904433e-06,2.4467767585162e-06,1.3885168483333e-06,-5.4525342560667e-07,-8.7890072629367e-06,0,1.6045597356058e-06,-0.00022752757869474,6.5842308725914e-05,-1.458103819555e-05,-0.00071341071394742,4.5166364393172e-05,-0.00024347939956152,0.0010676657133792,22.86600112915,61.511024475098,15.089186668396
-0.020052230075879,-0.045332846213383,0.00076174494106077,-1.4454478960753e-06,1.2576927833026e-06,-1.3131365566977e-07,-8.2074073870597e-06,1.9035874091875e-06,1.1360532301128e-06,24,9.8915168314939e-07,2.7040008016095e-06,4.0214030333854e-07,-6.7553803705202e-06,2.107217293817e-06,5.7662286873708e-06,-4.5758840331501e-07,3.9628828927199e-06,2.7052629473042e-07,-1.4961488020426e-05,0,6.9022743707184e-06,-0.00060254226429554,9.6745598715588e-05,-1.0101050436136e-05,-0.0011226929943713,0.00014642980070673,-0.00040396525458876,0.001155508989675,18.743738174438,63.643573760986,10.70699596405
-0.0090350863307739,-0.0035265503557501,-0.0001593917911226,-2.1281111828544e-06,1.9846128341495e-06,5.8180077728656e-07,-7.7417105780405e-06,1.1149369258148e-06,2.350529718385e-07,25,1.8914243950256e-07,5.6391028096918e-06,1.5246280481629e-06,-8.1875516496846e-06,2.0623805158154e-06,7.998409210182e-06,-1.9416847839515e-06,7.625175206698e-06,2.1060844480284e-06,-1.5926616529837e-05,0,8.2335325247322e-06,-0.00071955290574206,0.00015266252570381,4.475390594512e-05,-0.0011513682438333,8.5764378908834e-05,-0.00053777104768876,0.0012297489196972,83.00708770752,45.019779205322,4.5710034370422
-0.0059716010091181,-0.00066059321230836,-0.00016645458726427,-4.3306369898565e-06,-2.0710539569998e-06,6.3692657454018e-07,-5.1758569893553e-06,2.0016970651364e-06,4.2928085054902e-08,26,-1.9922819248977e-06,-3.0558990495687e-06,1.4397145930042e-06,-8.0024985056289e-06,2.8982818151707e-06,9.9947804305266e-06,-6.3224272408781e-06,-5.1256689124009e-06,2.0764376172271e-06,-1.3178847619796e-05,0,1.0037708966517e-05,-0.00087910087772879,-0.00015931184284614,4.8994351887707e-05,-0.00094411780076716,0.00015397669731818,-0.00054267279504329,0.0013564850540647,88.134208679199,38.138175964355,9.0091991424561
-0.030665050250182,-0.05,0.0011769432687194,3.2948848744135e-06,-4.3912354601317e-06,3.8584619068974e-07,-3.3577893163618e-06,2.3169256672284e-07,4.3205259749178e-07,27,3.0682062636615e-07,-2.5496673278389e-07,1.0531169576614e-08,-2.5435793971978e-07,-3.005294321042e-08,-5.2462686646376e-08,3.601705785036e-06,-4.6462018733886e-06,3.9637770445674e-07,-3.6121475339789e-06,0,3.7958990448626e-07,0.00027474969162085,-0.00033778734308705,2.9680476206903e-05,-0.00023699447690033,1.7822505132526e-05,5.4531824165335e-05,0.00084704282750847,32.925273895264,109.99697113037,4.7863278388977
-0.010452157215338,-0.0013918212779782,-1.4166822864213e-05,2.3425473090236e-06,-2.7097451223414e-06,4.0308035350456e-07,-2.8489569573797e-06,2.3704880006323e-06,-1.1839490280917e-06,28,4.3170193869211e-06,-5.3830247253273e-06,1.6316116963892e-06,-3.615532389777e-06,3.8013398609939e-06,-7.0148699714412e-07,6.6611154309009e-06,-8.0913892771512e-06,2.0341011269183e-06,-6.4661104794536e-06,0,-1.885363627895e-06,8.267525397598e-05,-0.0002084419324878,3.1006181038812e-05,-0.00031667122805504,0.00018234523081787,-0.00018859369503288,0.0012137545590346,86.719207763672,47.851375579834,0
-0.030651768472001,-0.05,0.0011994294369309,2.8593996975201e-07,-9.4479115652868e-07,-1.9964498859179e-08,-6.9928613054067e-07,-4.9435404255705e-08,2.8288469739843e-07,29,0,0,0,0,0,0,2.8593996975201e-07,-9.4479115652868e-07,-1.9964498859179e-08,-6.9928613054067e-07,0,2.8288469739843e-07,1.4468759400718e-05,-7.2676242809899e-05,-1.5357306814753e-06,-6.1317863698719e-05,-3.802723404285e-06,1.4233738450443e-05,0.00016954008742838,44.978492736816,110,14.530578613281
-0.03063297594427,-0.049992625518734,0.001200194619296,-6.5698249906307e-08,-1.269127681249e-06,-4.4783731952727e-07,-6.2937480157013e-07,-1.5961322643521e-07,3.8097967436167e-07,30,0,0,0,0,0,0,-6.5698249906307e-08,-1.269127681249e-06,-4.4783731952727e-07,-6.2937480157013e-07,0,3.8097967436167e-07,-2.3174483287876e-05,-9.7625206249926e-05,-3.4449024579021e-05,-6.6534218031246e-05,-1.2277940495016e-05,1.118535704043e-05,0.00021593163133428,42.944313049316,100,15.742451667786
-0.0067161627751419,-0.0013818442340241,0.00013906801469179,-2.3492489085665e-06,-1.8348702027584e-06,-1.644264042636e-06,-6.1593441453089e-06,-1.453829301072e-06,3.117685224426e-07,31,1.6210473709811e-06,-4.5601739490708e-06,-4.0428957882969e-06,-1.2081848008334e-05,-5.0955043648041e-06,1.0460800637353e-05,-7.2723295709076e-07,-6.392854661116e-06,-5.6861911476822e-06,-1.8242108612297e-05,0,1.0772517037955e-05,-0.0006536051774724,-0.00014114386175065,-0.00012648184943354,-0.00094668942645257,-0.00011183302315939,-0.00044891152893323,0.0013940976327006,86.953330993652,40.320899963379,14.451392173767
-0.03059496389276,-0.04997600641915,0.0011655431403329,-9.3182899954141e-07,-4.0841406549584e-06,1.1716755321778e-06,-1.7970536026779e-06,4.7292633815142e-07,9.3601620842616e-07,32,-7.1972696308677e-10,-1.8176257643246e-09,7.7725275980507e-10,3.8884447697894e-11,2.9159002457519e-10,6.8084251538887e-10,-9.3254872652827e-07,-4.0859582807366e-06,1.1724527848918e-06,-1.7970147182683e-06,0,9.3669705100344e-07,-0.00017511375345279,-0.00031416466576603,9.0128887090599e-05,-0.0002416694921556,3.6378949088571e-05,-3.1433352839901e-05,0.00068354387619708,33.60082244873,99.994262695312,4.7616839408875
-0.030553339344225,-0.049943735000497,0.0011676438427041,-7.7560141654364e-07,-3.9408676891199e-06,6.416582563258e-07,-4.1735331982655e-06,8.981554053573e-07,8.8682295914364e-07,33,-1.2292829887129e-06,-3.1178048420649e-06,6.970968814826e-07,-1.1335797343512e-06,6.6597012206886e-07,2.3628627230641e-06,-2.0048606619522e-06,-7.0586802414013e-06,1.3387503589248e-06,-5.3071352140258e-06,0,3.2496842203125e-06,-0.00029402578140714,-0.00030314366839384,4.9358327409677e-05,-0.0005554051492319,6.9088877335177e-05,-0.00016614698327735,0.0010195183054559,26.186321258545,99.434471130371,9.7621030807495
-0.0306404400159,-0.05,0.0011870680777067,5.7727235492357e-07,-2.298889300125e-06,1.7068940875421e-07,-1.340255669511e-06,1.2518194839589e-07,4.7239494277404e-07,34,0,0,0,0,0,0,5.7727235492357e-07,-2.298889300125e-06,1.7068940875421e-07,-1.340255669511e-06,0,4.7239494277404e-07,2.7640852004885e-05,-0.00017683763847115,1.3129954519555e-05,-0.00011986130372085,9.6293806458378e-06,1.9573358762613e-05,0.00040733825330268,38.709766387939,110,4.7038145065308
-0.030680343849785,-0.05,0.0011768719753414,1.8727240528049e-06,-3.9615827948998e-06,-8.1608703670527e-08,-2.2117395777534e-06,-6.6555194922474e-07,4.0015412267217e-07,35,0,0,0,0,0,0,1.8727240528049e-06,-3.9615827948998e-06,-8.1608703670527e-08,-2.2117395777534e-06,0,4.0015412267217e-07,0.00014758292316136,-0.00030473713806921,-6.2775925900405e-06,-0.00016660658688159,-5.1196303786518e-05,3.430831315115e-05,0.0007378008529222,33.79337310791,109.9979019165,15.051389694214
-0.03064838714726,-0.049932015359752,0.0012791469074937,1.1700968133403e-10,-9.8544366228038e-12,3.1942718543984e-10,1.1729554417651e-10,5.5448832967883e-11,-3.1751180651718e-10,36,0,0,0,0,0,0,1.1700968133403e-10,-9.8544366228038e-12,3.1942718543984e-10,1.1729554417651e-10,0,-3.1751180651718e-10,4.2003650445418e-09,-7.5803358636952e-10,2.457132195691e-08,4.2223544939633e-09,4.2652948436833e-09,-2.9224364790166e-08,6.5265770249149e-08,86.394905090332,110,14.082970619202
-0.030632298549457,-0.049932049649576,0.0012797207649282,2.8237226452385e-11,4.9537759192961e-11,2.4927309122978e-10,1.0143530148122e-10,5.2137700760381e-11,-1.5903621390831e-10,37,0,0,0,0,0,0,2.8237226452385e-11,4.9537759192961e-11,2.4927309122978e-10,1.0143530148122e-10,0,-1.5903621390831e-10,4.7803553625836e-10,3.810596860997e-09,1.9174853171522e-08,6.1086566923228e-09,4.0105923661831e-09,-1.3927613722257e-08,4.7466110090492e-08,86.358703613281,100,14.518911361694
-0.03063446817536,-0.049940609792358,0.0012698728501532,-9.8888139990465e-11,5.1814345840831e-11,7.7991756981413e-10,2.3225925836469e-10,1.6767052907686e-10,-2.5210423313922e-10,38,0,0,0,0,0,0,-9.8888139990465e-11,5.1814345840831e-11,7.7991756981413e-10,2.3225925836469e-10,0,-2.5210423313922e-10,-1.4456767389555e-08,3.9857189108331e-09,5.9993659216471e-08,1.1016109406996e-08,1.2897733005913e-08,-2.624262070869e-08,1.3675727960572e-07,81.260078430176,100,15.642376899719
-0.030624902074807,-0.049936958907843,0.0012744050359471,4.403088403027e-10,6.2377390815814e-11,1.1957291907101e-10,1.368965084283e-10,5.1193472071187e-11,-6.0213212438177e-10,39,0,0,0,0,0,0,4.403088403027e-10,6.2377390815814e-11,1.1957291907101e-10,1.368965084283e-10,0,-6.0213212438177e-10,3.2431827581894e-08,4.7982608319857e-09,9.1979168516162e-09,9.0924174377095e-09,3.9379593900913e-09,-4.7755938932296e-08,8.6569123222033e-08,83.605224609375,100,10.68777179718
-0.030569321278562,-0.049952227141534,0.0011575651616966,2.5134941710043e-07,-4.6273633942887e-06,1.5881853480942e-06,-3.7811804655022e-06,6.6982282048714e-07,7.2766089999817e-07,40,-4.8438357694797e-07,-1.4948183865406e-06,6.4551359488646e-07,-3.0981840482325e-07,2.862765818485e-07,7.9420198177122e-07,-2.330295417672e-07,-6.1221852069421e-06,2.2336935417481e-06,-4.0910061425866e-06,0,1.5218655359502e-06,-0.00014232909186171,-0.0003559510303299,0.00012216810369955,-0.00045252369821575,5.1524832345164e-05,-0.00010568974702342,0.00099370356610446,27.977193832397,99.762512207031,4.4524745941162
-0.013587832917314,-0.046072755958976,0.00053160014071695,6.7168830448042e-06,-2.016035406614e-06,5.1123912910664e-07,-3.8873446047463e-06,-1.2962168843167e-07,-1.1909110754247e-07,41,6.155790795933e-06,-2.6932182804764e-06,2.5818711195752e-07,-4.1396886595227e-06,-3.7622894464693e-08,-2.0161021364103e-06,1.2873509983399e-05,-4.7077246387667e-06,7.6938747556398e-07,-8.0278665261762e-06,0,-2.135196124707e-06,0.00067305527263006,-0.00015507964666262,3.9326086854357e-05,-0.00014265454656614,-9.9708991101283e-06,0.00014721110706493,0.0010848125890808,17.523561477661,52.843414306641,15.789947509766
-1.6466263947543e-06,1.9747908072614e-08,2.3943886080097e-07,-8.4803768185752e-08,-7.879500831403e-08,2.5095707070774e-09,7.7962210751566e-09,3.9931055222932e-09,2.5653512252047e-08,42,0,0,0,0,0,0,-8.4803768185752e-08,-7.879500831403e-08,2.5095707070774e-09,7.7962210751566e-09,0,2.5653512252047e-08,-9.4860995638203e-06,-6.0611544856946e-06,1.9304390054442e-07,-2.3630234668273e-06,3.0716196325332e-07,-9.893856839896e-07,1.3907429448789e-05,23.96595954895,10,15.865425109863
0,0,0,-3.1423421349715e-08,-7.2463399783109e-08,-2.2181139427161e-09,-5.2664035736728e-10,3.9395752884144e-09,1.2809704249944e-08,43,0,0,0,0,0,0,-3.1423421349715e-08,-7.2463399783109e-08,-2.2181139427161e-09,-5.2664035736728e-10,0,1.2809704249944e-08,-3.5214376494283e-06,-5.5741076756238e-06,-1.706241494397e-07,-1.1447621884785e-06,3.0304425295495e-07,-1.1888952637764e-07,1.0955498456295e-05,23.101259231567,0,14.864526748657
0,0,0,-5.9243882491179e-08,-1.0154375808328e-07,3.6355124039756e-09,7.8860747298656e-09,3.6623267046399e-09,1.6316553917278e-08,44,0,0,0,0,0,0,-5.9243882491179e-08,-1.0154375808328e-07,3.6355124039756e-09,7.8860747298656e-09,0,1.6316553917278e-08,-6.578832528785e-06,-7.8110583140986e-06,2.7965480030581e-07,-1.4149896656277e-06,2.8171743881845e-07,-7.6649126659601e-07,1.5679518138709e-05,26.907411575317,0,10.943455696106
0,0,0,-5.3644135570914e-08,-1.1143622560743e-07,-2.6018754926945e-09,-5.8627589085753e-10,1.1702487569976e-08,2.0387094628699e-08,45,0,0,0,0,0,0,-5.3644135570914e-08,-1.1143622560743e-07,-2.6018754926945e-09,-5.8627589085753e-10,0,2.0387094628699e-08,-6.0789710150552e-06,-8.572017354418e-06,-2.0014426866881e-07,-1.9975971935124e-06,9.0019135153661e-07,-3.8426099970037e-07,1.6974385797095e-05,27.830945968628,0,15.935225486755
0,0,0,3.5756420884325e-06,-2.4415050426758e-06,4.960471479686e-07,-1.0279653309726e-06,2.9178632380414e-07,6.5196586957642e-08,46,0,0,0,0,0,0,3.5756420884325e-06,-2.4415050426758e-06,4.960471479686e-07,-1.0279653309726e-06,0,6.5196586957642e-08,0.00042579208436506,-0.00018780808020583,3.8157472920661e-05,7.1668436718506e-05,2.2445101831088e-05,0.00015575781502083,0.00074620395779474,73.019241333008,0.28733348846436,10.753612518311
0,0,0,-2.3187662979869e-06,-3.9410246079034e-06,8.1597097711893e-08,-7.8594264657957e-07,6.2843607082555e-08,1.1408961327598e-06,47,0,0,0,0,0,0,-2.3187662979869e-06,-3.9410246079034e-06,8.1597097711893e-08,-7.8594264657957e-07,0,1.1408961327598e-06,-0.00029166353129554,-0.00030315573906949,6.2766998239917e-06,-0.00017375401964882,4.834123621735e-06,-2.5535652007327e-05,0.0006218077309677,67.16357421875,0.010464068502188,10.665651321411
0,0,0,-4.1455339398702e-08,-3.8549983473992e-06,7.0575898142123e-07,-1.5180832678685e-06,9.5196913705746e-07,1.5250777974632e-06,48,0,0,0,0,0,0,-4.1455339398702e-08,-3.8549983473992e-06,7.0575898142123e-07,-1.5180832678685e-06,0,1.5250777974632e-06,-5.1769959039808e-06,-0.00029653833441532,5.4289152417018e-05,-0.00011876375963243,7.3228395158266e-05,0.00011532555308539,0.00061911757389261,70.061721801758,0.067293919622898,14.777216911316
-9.7623379746951e-05,-1.6544323017312e-05,1.3272569942036e-06,-2.1401517435471e-06,-4.2350815573397e-06,5.5826510056167e-07,-2.5205134436624e-06,9.6308296716341e-08,1.4224571348698e-06,49,-7.7587603086575e-07,-1.2806682155754e-06,6.3711525735243e-08,-3.1257009951982e-07,-5.6900427750247e-08,1.0884461303856e-06,-2.9160240695563e-06,-5.5157501476549e-06,6.2197609816481e-07,-2.8330869660079e-06,0,2.5109029832245e-06,-0.00035144675252321,-0.00032577550441075,4.2943469273975e-05,-0.00038070534483978,7.4083305166416e-06,-7.7399915721918e-05,0.00087061700085215,71.640075683594,10.22926902771,9.8881998062134
-0.017955211685998,-0.011079326955165,0.00027771733957266,3.2957497444176e-06,2.0104110431646e-06,-2.3762324512398e-07,-2.6082506257085e-06,-6.3644259342855e-07,-6.3746694090318e-08,50,2.1425533804423e-06,4.3821776022758e-07,-3.7363853750704e-07,-1.8031270096113e-06,2.2957018151451e-07,-3.3942637083104e-07,5.4381603987708e-06,2.4491162733454e-06,-6.1128875014721e-07,-4.4112352667107e-06,0,-4.0317270744117e-07,0.00028950492791398,0.00015464700332035,-1.8278711163383e-05,-0.0001646489467111,-4.8957122571427e-05,3.1082124951832e-05,0.0010146106347495,71.073852539062,59.911762237549,8.9044218063354
-0.017977894963064,-0.012522794038946,0.00029609953390931,1.5732707911376e-06,2.5956194419256e-06,2.3462928682304e-07,-5.1948402017908e-07,-1.4727300458841e-07,7.5180378022622e-07,51,4.4834201354793e-07,2.0125721127609e-07,-1.2938809610772e-07,-3.1960828203267e-07,-1.2278614138744e-07,-1.2873373151526e-07,2.0215799797312e-06,2.7969392603962e-06,1.0525123580128e-07,-8.3905928793382e-07,0,6.230698593874e-07,0.00022518951573278,0.00019966303399427,1.8048406678696e-05,6.4208376400731e-05,-1.1328692660647e-05,0.00016199974566268,0.00092617579432621,68.943580627441,59.980297088623,13.70160484314
-0.018053595281639,-0.014503078534556,0.00032799867644926,2.9201593074699e-06,2.2910667928434e-06,3.9291210954745e-07,-4.7977176211725e-07,-3.6686217536123e-07,-4.1122353794743e-07,52,0,0,0,0,0,0,2.9201593074699e-06,2.2910667928434e-06,3.9291210954745e-07,-4.7977176211725e-07,0,-4.1122353794743e-07,0.00034169479330952,0.0001762359071418,3.0224008426727e-05,8.0161634110512e-05,-2.8220167335479e-05,8.5434574431267e-05,0.00072040446898009,65.82307434082,59.999969482422,9.6466913223267
-0.01156240552523,-0.012045543700887,0.00013936071598804,-4.5951680174063e-06,3.1722066937402e-06,2.0754063238267e-08,-1.0069099165907e-06,-1.2392972082871e-06,1.6476310170105e-06,53,-1.7225896419961e-06,7.3476448127697e-07,-2.1199457959439e-07,3.8279527505256e-07,-3.7843800065004e-07,1.3397943669436e-06,-6.3179150919204e-06,3.9067006089841e-06,-1.9118636600612e-07,-6.2395402230522e-07,0,2.9874221972391e-06,-0.0005816156311651,0.00024401589951848,1.5964664029436e-06,-0.0003055957772562,-9.533055448362e-05,-0.00010140032082534,0.00092843580788962,69.550537109375,49.956825256348,8.4203872680664
-0.01203397793675,-0.041632443859866,0.00048795422596717,5.5238537653625e-06,1.1810778983932e-06,-1.8992665671663e-07,-3.4014732681924e-06,2.0038448548949e-08,-7.3952251106704e-07,54,5.1810269760444e-06,-1.2160707868489e-06,-3.9440516171198e-07,-2.7462641103585e-06,3.5716893610458e-07,-2.4347628656859e-06,1.0705349580963e-05,-3.3600177422863e-08,-5.8439529079042e-07,-6.1482050818967e-06,0,-3.1742865129632e-06,0.00050469209653383,9.0852146030245e-05,-1.4609742824356e-05,-0.00018187152143194,1.5414191191499e-06,2.2893921423863e-05,0.0010119437358188,24.653253555298,50.641342163086,10.531562805176
-0.012297580502106,-0.042622597744303,0.0004544881387403,6.8482900968944e-06,4.280954436852e-07,-3.6541102113508e-07,-3.4226498362283e-06,6.0972930676296e-07,-5.2711968389175e-07,55,6.1589900525546e-06,-8.2426218117226e-07,-4.7370074940305e-07,-4.217698959171e-06,2.082996143759e-07,-1.9412910933836e-06,1.3007576668863e-05,-3.9458538587936e-07,-8.3912348631511e-07,-7.6406436932295e-06,0,-2.468412398859e-06,0.0006940138868827,3.2930418745015e-05,-2.8108540087314e-05,-9.6058415665195e-05,4.6902254366382e-05,0.00012667467297608,0.0010887509900894,23.185245513916,50.951915740967,15.371134757996
-0.025057265451671,-0.049939235894807,0.00094524884511354,-6.7325452504578e-06,-9.6866936867678e-07,-1.8994675996219e-07,-5.7208199906624e-06,-1.0285432625234e-07,3.1809443176811e-06,56,-8.2412372739793e-06,-1.794492475167e-06,-4.9019914262276e-07,-9.7777831649823e-06,6.8694207549446e-07,1.8019020438962e-05,-1.4973503712045e-05,-2.7622672017604e-06,-6.8035114585173e-07,-1.5498879941926e-05,0,2.1199962730532e-05,-0.0010528354571567,-7.4513028359752e-05,-1.4611289227861e-05,-0.00097501043717244,-7.9118712501797e-06,-0.00029025933653063,0.0013886630540036,10.925696372986,74.483528137207,10.574136734009
-0.025627005165151,-0.050151320847338,0.0007968133546312,-4.9857228411451e-06,-7.1850899846255e-07,8.2901286360623e-07,-4.81955083711e-06,1.2908826963466e-06,-1.0436157329215e-07,57,-2.3312666564316e-06,-3.3141587649666e-07,2.8995471339104e-07,-5.0415919816276e-06,2.52829368662e-06,7.3728586380591e-06,-7.3172024108105e-06,-1.0490864869167e-06,1.1185827562237e-06,-9.860962787453e-06,0,7.2685299467161e-06,-0.00095522686767736,-5.5269922958658e-05,6.3770220277402e-05,-0.0009424444058285,9.9298668949742e-05,-0.00057973753938097,0.0012714651435128,10.533861160278,76.129898071289,5.0312938690186
-0.024277529403762,-0.05355100453132,0.00082621717512995,-3.0750304294999e-06,-3.0755961630228e-06,1.4716357720959e-06,9.9015950853606e-06,4.318706456771e-07,3.3394871665803e-06,58,-1.7981857987996e-05,-9.188485280921e-06,5.073908795115e-06,2.1215671624462e-05,7.3572035699584e-07,-3.2338136364659e-06,-2.1054213887378e-05,-1.2269601145896e-05,6.5452999882809e-06,3.1114580621576e-05,0,1.0568508824361e-07,0.00034996218748698,-0.00023658432023252,0.00011320275169968,0.0013481641501686,3.3220818898239e-05,0.00084338661795469,0.0013320366676759,0.93173331022263,73.126693725586,10.46844291687
-0.026472496051804,-0.05368675751324,0.00097626815755788,-3.0735665870494e-06,-1.1178528085134e-06,3.314356099838e-08,2.5741138123063e-06,3.6277082242484e-07,3.3221176566533e-06,59,-1.0007661079644e-05,-1.7126999443975e-06,-2.4270592310161e-07,4.9027889957683e-06,8.9886158245456e-07,5.1048720838754e-06,-1.3080733137105e-05,-2.8323066506626e-06,-2.0971859267083e-07,7.476466323494e-06,0,8.4269316955214e-06,-7.3582148124356e-05,-8.5988677577954e-05,2.5495046921831e-06,0.00036085480567223,2.7905447878834e-05,0.00041839356292969,0.0012949914125554,0.11673355102539,79.003257751465,10.208310127258
-0.012580300204024,-0.043454739346499,0.00057431259062317,6.0021166703119e-06,-6.9300266058721e-07,3.0385687370593e-07,-2.9416762146117e-06,-3.1471654490837e-07,-6.8133168601435e-07,60,6.2987209167696e-06,-1.9061724680237e-06,1.9896602100079e-07,-4.1177963935318e-06,5.0494155679449e-07,-2.1809245232378e-06,1.2301474826483e-05,-2.5974600925778e-06,5.0272201815927e-07,-7.0601082373185e-06,0,-2.8622578194784e-06,0.00059895755750586,-5.3307896968247e-05,2.3373605669687e-05,-8.9026510565184e-05,-2.4208964992951e-05,8.4846145480769e-05,0.0010836527210804,21.608736038208,51.295028686523,5.16424036026
-0.015433460697827,-0.048984182064104,0.0006069507408522,9.187576143442e-06,-6.3278743092076e-06,1.3460179517909e-06,-9.1959777968714e-07,1.1939928870916e-06,-3.6906551970683e-08,61,1.2054011945354e-05,-1.3319376033068e-05,2.844179843098e-06,-6.152573889545e-06,2.5603266187607e-06,-5.9014380558087e-06,2.1246583529653e-05,-1.9644075723219e-05,4.1896106134123e-06,-7.0772335554942e-06,0,-5.9382781623746e-06,0.0011816061540216,-0.00048675956224674,0.00010353984244545,0.00040413123685777,9.1845606699355e-05,0.00047203056206673,0.0012129786605259,12.478445053101,55.761154174805,15.986744880676
-0.017343384336328,-0.046359615789513,0.00069703393357977,5.1620616799059e-06,-2.0551168391776e-06,2.8713840851142e-07,-3.9617675886958e-06,2.1475533671345e-06,2.7580264312117e-07,62,5.8630752269714e-06,-2.8367382709542e-06,5.7120915367896e-07,-4.6508740342964e-06,2.0036006402284e-06,-1.2122011926751e-06,1.1025993060164e-05,-4.8902385147292e-06,8.5802799283697e-07,-8.6135362000252e-06,0,-9.3636012580712e-07,0.00048224109466572,-0.00015808591070597,2.2087569885494e-05,-0.00021959192599596,0.0001651964128565,0.00010637501491305,0.0010929574859828,17.284614562988,59.141021728516,20
-1.7266059754867e-05,8.0452262127744e-07,1.5163430845058e-06,-1.1484215241276e-06,-8.6974808003062e-07,4.8917292498259e-08,5.9288465522981e-08,3.2798350777145e-08,3.3772804639305e-07,63,0,0,0,0,0,0,-1.1484215241276e-06,-8.6974808003062e-07,4.8917292498259e-08,5.9288465522981e-08,0,3.3772804639305e-07,-0.00013169040640664,-6.6903698463894e-05,3.7628686537122e-06,-3.8789637971978e-05,2.5229500597804e-06,-1.737120867428e-05,0.00016347845357595,53.503730773926,10,11.204183578491
-2.7679996181773e-05,7.21304387607e-07,2.3850799124214e-06,-2.034809063221e-06,-1.5252327880133e-06,1.4872490421746e-07,1.0980155370198e-08,6.5793780591186e-08,7.8703405805684e-07,64,0,0,0,0,0,0,-2.034809063221e-06,-1.5252327880133e-06,1.4872490421746e-07,1.0980155370198e-08,0,7.8703405805684e-07,-0.0002278773231205,-0.00011732559907794,1.1440377247497e-05,-7.0508921690408e-05,5.0610600454758e-06,-1.081246763759e-05,0.00029337140666496,58.78881072998,10,11.146516799927
-2.2447516441076e-05,1.2020013994579e-07,4.1949837231689e-06,-1.294022689254e-06,-1.0509875244763e-06,1.2886655842839e-07,8.8788973513891e-08,8.6115699861438e-08,4.0771440560331e-07,65,0,0,0,0,0,0,-1.294022689254e-06,-1.0509875244763e-06,1.2886655842839e-07,8.8788973513891e-08,0,4.0771440560331e-07,-0.00014555093629666,-8.0845194190488e-05,9.9128121867994e-06,-3.9180808391437e-05,6.624284604726e-06,-1.4648082846097e-05,0.000200224804498,56.19885635376,10,15.650583267212
0,0,0,-6.5180505855187e-07,-1.1163093723569e-06,8.0227144748983e-09,5.2152119693591e-08,7.1139145693486e-08,2.3151368240298e-07,66,0,0,0,0,0,0,-6.5180505855187e-07,-1.1163093723569e-06,8.0227144748983e-09,5.2152119693591e-08,0,2.3151368240298e-07,-7.1377653914872e-05,-8.5869951719764e-05,6.1713188268449e-07,-1.7227101742145e-05,5.472241976422e-06,-3.430058456807e-06,0.00017439934378514,56.215766906738,0,10.184571266174
-0.020385720858477,-0.045953261412091,0.00083464783727687,3.3828764756729e-07,4.4959122426025e-07,7.1983270752763e-08,-6.4891984908368e-06,-2.1319841839694e-08,1.3896445147365e-06,67,2.2774377668138e-06,2.5266519651933e-06,2.9932445566421e-07,-7.4305633436897e-06,9.4837484894199e-08,5.1531255768759e-06,2.6142038663912e-06,2.9778437192771e-06,3.7134876240554e-07,-1.3918246383081e-05,0,6.5427761881566e-06,-0.00024866631529481,3.4583940327711e-05,5.5371746732894e-06,-0.00077385755671051,-1.6399878338226e-06,-0.00016779271012795,0.0011683938102314,17.924089431763,64.24161529541,15.770867347717
-0.025733150726805,-0.05368159862645,0.0009316930107236,-2.987933509083e-06,-1.0547242721127e-06,1.10162429637e-06,7.6154601836617e-06,1.548746943323e-06,-3.8552696678008e-07,68,-1.2923138525095e-05,-3.581755146378e-06,7.4668642683928e-07,2.0505326644979e-05,1.2891986659414e-06,-7.5821881198837e-06,-1.5909935187438e-05,-4.6407721069019e-06,1.8482052406806e-06,2.8119692669637e-05,0,-7.9677577744e-06,1.4889713212775e-05,-8.1132636316361e-05,8.4740330489997e-05,0.00083053538188544,0.00011913438025561,0.00021507483185146,0.0012775929938091,0.30818748474121,76.686088562012,5.2698512077332
-1.1200202575634e-06,-8.1181920153557e-08,2.6187994302352e-07,-8.131976243982e-08,-9.4518600909437e-08,1.0428143607977e-08,2.5227482256451e-09,8.934647022259e-09,2.5032703593458e-08,69,0,0,0,0,0,0,-8.131976243982e-08,-9.4518600909437e-08,1.0428143607977e-08,2.5227482256451e-09,0,2.5032703593458e-08,-9.3571534927198e-06,-7.2706616084182e-06,8.0216489292133e-07,-2.9077295953763e-06,6.8728054017377e-07,-1.176194567083e-06,1.5856687593923e-05,26.892124176025,5.0820007324219,20
-0.030623168024869,-0.049926577811384,0.0012863099463979,1.3326411528461e-10,2.0728891140347e-11,2.5586630523855e-12,7.3181995812882e-11,7.7404428975134e-12,-2.3767228582055e-10,70,0,0,0,0,0,0,1.3326411528461e-10,2.0728891140347e-11,2.5586630523855e-12,7.3181995812882e-11,0,-2.3767228582055e-10,8.449575710948e-09,1.594530087719e-09,1.9682023479888e-10,3.8278742131224e-09,5.9541868442411e-10,-2.0083993604834e-08,3.1596655930341e-08,89.770172119141,100,9.7907466888428
-0.030746730551979,-0.050065463378182,0.0011639902800094,4.8149266456233e-06,-6.005545397248e-07,-7.2217197094128e-08,-2.6908060113004e-06,5.0586499988898e-07,-1.2219228483789e-07,71,1.6798643635399e-06,6.4377618479072e-07,1.3180830599671e-07,-1.1428425960481e-06,5.6608903932054e-07,-5.370217674918e-07,6.4947734328119e-06,4.3241374500656e-08,5.9587186162503e-08,-3.8336327326392e-06,0,-6.5921235068774e-07,0.00048587483905669,-4.6196503055754e-05,-5.5551690072407e-06,-9.1489211475894e-05,3.8912692299152e-05,0.00010609645979045,0.00098662400440373,21.027746200562,108.50701141357,5.1120104789734
-0.030876085768282,-0.050191627653974,0.0010884074447492,5.9604035138173e-06,1.7492053274053e-06,-1.4600644525e-07,-1.771233410315e-06,-8.8383193451836e-08,-1.7518691455386e-06,72,6.2285481383593e-06,3.5242400047381e-06,9.4002214946e-08,-2.3793765117411e-06,-2.4148509722491e-08,-3.8491716266181e-06,1.2188847530844e-05,5.2735587130886e-06,-5.196898531209e-08,-4.150504114976e-06,0,-5.6010424579047e-06,0.00059910609479155,0.00013455425595425,-1.1231265019231e-05,4.3647929352102e-06,-6.7987071886028e-06,5.8543517641702e-06,0.0010896590812698,17.708137512207,107.2370300293,15.942567825317
-0.030793108669859,-0.05014357134677,0.0011459606512254,4.3010217344401e-06,1.0113281060019e-06,-6.8238370489118e-07,-1.7908496163798e-06,2.9932384747597e-07,4.6339124435533e-07,73,2.8108838877701e-06,1.4407266036311e-06,-3.3067772238155e-07,-1.8571114120669e-06,3.6041426978586e-07,-9.5377247570317e-07,7.1118666412695e-06,2.4521042449504e-06,-1.0130418395868e-06,-3.6479132570305e-06,0,-4.9039002182341e-07,0.00050239955817321,7.7794469692457e-05,-5.2491054222398e-05,3.3794069648603e-05,2.3024911344305e-05,0.00020719721278208,0.0010413018896621,19.073928833008,107.854637146,10.719782829285
-0.030803637268435,-0.05,0.0011218195362928,1.0395474233447e-05,-6.3170006225262e-07,5.1921816269347e-07,-2.4867895919225e-06,-1.6510915268549e-06,2.5994498316499e-07,74,7.5056168910571e-06,-8.245045095898e-07,5.8937307199595e-07,-4.9301099163333e-06,-1.3822993603077e-06,-2.5755069747238e-06,1.7901083596717e-05,-1.456145563876e-06,1.10863205699e-06,-7.4168968518515e-06,0,-2.3155571201762e-06,0.0012709189578434,-4.8592312480971e-05,3.9939858668728e-05,0.00027997558666113,-0.0001270070405273,0.00049126286166787,0.0010958609391528,22.804969787598,109.04878997803,15.279583930969
-0.030522809720014,-0.049884672843084,0.001203481601217,1.6165201000218e-06,-3.4097002892556e-06,-3.2965578704755e-07,-3.8797719095585e-06,-3.1214520142317e-07,1.3763886034974e-07,75,1.248924020672e-06,-3.7505789109744e-06,-4.1440747169039e-07,-2.3798707319184e-06,-3.0824949744212e-07,1.1309467112464e-06,2.8654741039929e-06,-7.1602640034405e-06,-7.4405423201078e-07,-6.2596672816079e-06,0,1.2685802284281e-06,1.7161837024365e-06,-0.00026228463763505,-2.5358137465196e-05,-0.0004210755093422,-2.4011169340244e-05,-0.00011204391165696,0.0010818695427544,25.130048751831,99.274719238281,15.337514877319
-0.030613668324824,-0.049962021945489,0.0012462661415899,1.0111927965188e-09,6.5174616214455e-10,-2.8345128754848e-09,-1.4591380027409e-09,7.4181790235243e-10,1.9680933900143e-10,76,0,0,0,0,0,0,1.0111927965188e-09,6.5174616214455e-10,-2.8345128754848e-09,-1.4591380027409e-09,0,1.9680933900143e-10,6.3295453546407e-08,5.0134320164965e-08,-2.1803945196037e-07,-1.2672999255049e-07,5.7062915565571e-08,6.5057219891781e-10,7.3698191265287e-07,69.032157897949,100,4.8676333427429
-0.030640426661053,-0.049959105403281,0.0012485829274052,6.249303875889e-09,9.2350628001287e-10,-1.9659402700694e-10,-2.3912473964018e-09,2.0700319956174e-09,-3.0002684352532e-09,77,0,0,0,0,0,0,6.249303875889e-09,9.2350628001287e-10,-1.9659402700694e-10,-2.3912473964018e-09,0,-3.0002684352532e-09,5.3020345454341e-07,7.1038944616374e-08,-1.5122617462072e-08,-1.344543356328e-07,1.5923323043211e-07,-1.8130210785214e-07,9.8445393123174e-07,70.563621520996,110,9.9380664825439
-0.030624580642433,-0.049956850897008,0.0012517287846725,3.4534069776822e-09,7.6193791208847e-11,3.5403392026547e-10,-6.4984402241335e-10,9.7065377141051e-10,-2.0130703298226e-09,78,0,0,0,0,0,0,3.4534069776822e-09,7.6193791208847e-11,3.5403392026547e-10,-6.4984402241335e-10,0,-2.0130703298226e-09,3.1125203436669e-07,5.861060862219e-09,2.7233378481959e-08,-4.3826579483561e-09,7.4665674723885e-08,-1.0924622005676e-07,5.167767425695e-07,71.864227294922,100,10.510897636414
-0.03063032838304,-0.049955618784961,0.0012529509227628,1.702833703079e-09,9.6139788303133e-10,-2.8119953268524e-09,-6.3232189658094e-10,1.6372169177916e-10,-1.5769426927768e-09,79,0,0,0,0,0,0,1.702833703079e-09,9.6139788303133e-10,-2.8119953268524e-09,-6.3232189658094e-10,0,-1.5769426927768e-09,1.0177004141307e-07,7.3953683310102e-08,-2.163073328348e-07,-7.7857312406923e-08,1.2593976290705e-08,-1.5052045057583e-07,5.4390650391106e-07,72.818672180176,110,4.7260031700134
-0.030370847450395,-0.049993797141378,0.0011640011597589,-2.9956930193007e-06,-1.7355461422289e-06,-6.1329204360818e-07,-5.5272843064012e-06,-5.6094569668095e-08,-1.9421188470617e-07,80,-3.9585787394301e-07,-1.6176792698708e-06,-1.2295552065926e-07,-2.1041845378062e-06,1.6966990035311e-07,2.5000424117492e-06,-3.3915192403579e-06,-3.3531933442594e-06,-7.3624214084172e-07,-7.6314894402047e-06,0,2.3058194701545e-06,-0.00073335268670052,-0.00013350354940222,-4.7176311046783e-05,-0.00092809047801594,-4.3149668975458e-06,-0.00051785413788556,0.0010930968709479,21.541759490967,97.903213500977,11.650677680969
-7.5479950991293e-06,-1.1395150465551e-07,-1.4728216318361e-07,-3.7741910788623e-07,-3.788922415113e-07,-2.033201021102e-08,-1.3750739644089e-10,1.3570482594088e-08,1.0898040948436e-07,81,0,0,0,0,0,0,-3.7741910788623e-07,-3.788922415113e-07,-2.033201021102e-08,-1.3750739644089e-10,0,1.0898040948436e-07,-4.452702017192e-05,-2.914555703933e-05,-1.5640007854631e-06,-1.5505358595783e-05,1.0438832764683e-06,-7.111672681875e-06,6.5667119682638e-05,43.078212738037,10,10.141766548157
0,0,0,-1.7828839244122e-07,-2.3278789611059e-07,-1.2369952229281e-08,1.0743153913849e-08,6.6390692129802e-09,5.1790955667019e-08,82,0,0,0,0,0,0,-1.7828839244122e-07,-2.3278789611059e-07,-1.2369952229281e-08,1.0743153913849e-08,0,5.1790955667019e-08,-2.0392623429729e-05,-1.7906761239276e-05,-9.5153478686778e-07,-5.8517352485702e-06,5.1069763176771e-07,-2.6942120367878e-06,3.940307495813e-05,36.595687866211,0,10.499413490295
0,0,0,-1.1067069179867e-07,-3.4828994866744e-07,-8.6568183506496e-09,-1.1380486895561e-08,-1.3767493456798e-08,4.1308207936202e-08,83,0,0,0,0,0,0,-1.1067069179867e-07,-3.4828994866744e-07,-8.6568183506496e-09,-1.1380486895561e-08,0,4.1308207936202e-08,-1.3171378451322e-05,-2.679153451288e-05,-6.6590910389612e-07,-5.5336703818524e-06,-1.0590379582152e-06,-1.4806938563322e-06,5.1668808045831e-05,42.138900756836,0,9.1552581787109
0,0,0,-1.6060790026798e-07,-3.3581842887126e-07,-6.5121194910566e-09,-1.9225060308819e-08,2.182509388272e-08,7.7432515337053e-08,84,0,0,0,0,0,0,-1.6060790026798e-07,-3.3581842887126e-07,-6.5121194910566e-09,-1.9225060308819e-08,0,7.7432515337053e-08,-1.8262171861368e-05,-2.5832186836251e-05,-5.0093226854281e-07,-7.3865687875867e-06,1.6788533755938e-06,4.8629339018896e-08,5.1303006809358e-05,39.47830581665,0,15.37362575531
-0.030711783056841,-0.05,0.0011517550528683,2.854104452812e-06,-5.2966694830667e-06,1.4006672354387e-07,-3.9284422983351e-06,-7.0689087036817e-07,7.0945001654993e-07,85,1.3169449693745e-06,-3.1953514666547e-06,-1.7101174615348e-07,-2.006383110092e-06,-2.9520561875004e-07,6.8943814071747e-07,4.1710561080596e-06,-8.4920104071099e-06,-3.0935875640061e-08,-5.9348300523826e-06,0,1.3988861153498e-06,0.00019849527546785,-0.00040743611408205,1.0774363349528e-05,-0.000323239090005,-5.4376220797551e-05,3.3521857293847e-05,0.0010155336061539,28.441566467285,109.85778808594,15.2822265625
-0.0065116028773331,0.0011520173120402,-6.1480501746683e-05,-1.8291090284563e-06,-3.6111298015916e-06,6.795174245816e-07,5.7095119082261e-06,7.6120457706565e-07,-1.3900861857408e-06,86,-7.454425503167e-06,-1.2223801039055e-05,2.9469645247564e-06,1.4506078700233e-05,5.4607245333395e-07,-7.0516531970661e-06,-9.279909141527e-06,-1.5837999408562e-05,3.6263966920968e-06,2.0211937405858e-05,0,-8.4417115703023e-06,2.9714224665709e-06,-0.00027777921550704,5.2270571121662e-05,0.00058286534067292,5.8554198235819e-05,3.6742410367768e-05,0.0012981720772135,92.553314208984,39.800800323486,0
-0.030622892638007,-0.049975559937757,0.0012302723999971,7.0371119853786e-09,3.2063636654762e-09,4.23939068726e-09,-2.9763085778118e-08,9.4747254371911e-09,2.8744425972677e-08,87,0,0,0,0,0,0,7.0371119853786e-09,3.2063636654762e-09,4.23939068726e-09,-2.9763085778118e-08,0,2.8744425972677e-08,8.8853470156397e-07,2.4664335888279e-07,3.2610697594307e-07,-1.9422497417819e-06,7.2882503363009e-07,2.5583280852023e-06,5.5498749003023e-06,60.797416687012,100,9.5800981521606
-0.03064298674307,-0.049970195957861,0.0012359598149879,9.9691477172767e-09,1.6998176410772e-09,2.6806860356082e-11,-1.0886017803187e-08,6.2494571120737e-09,4.0499557867015e-09,88,0,0,0,0,0,0,9.9691477172767e-09,1.6998176410772e-09,2.6806860356082e-11,-1.0886017803187e-08,0,4.0499557867015e-09,9.4761246098999e-07,1.3075520315978e-07,2.0620661812371e-09,-6.5663104058417e-07,4.8072747015951e-07,4.922900047919e-07,2.378307098649e-06,64.009292602539,110,11.214913368225
-0.030623465703302,-0.049966528855057,0.0012407219127638,7.7408074225002e-09,-1.2188222777199e-09,1.7286938828892e-09,-5.6003190178739e-09,3.6141652584115e-09,6.7871174600124e-10,89,0,0,0,0,0,0,7.7408074225002e-09,-1.2188222777199e-09,1.7286938828892e-09,-5.6003190178739e-09,0,6.7871174600124e-10,7.5809288734391e-07,-9.3755559824604e-08,1.3297645252994e-07,-2.6814760806948e-07,2.780127121855e-07,2.1485475838245e-07,1.5564296055792e-06,66.170425415039,100,9.9127111434937
-0.03061301603952,-0.049971759718532,0.0012351096777149,1.9387271339352e-09,1.091987222557e-09,2.0049042218264e-11,-9.8647630126336e-09,1.8645922061136e-09,8.4803510563909e-09,90,0,0,0,0,0,0,1.9387271339352e-09,1.091987222557e-09,2.0049042218264e-11,-9.8647630126336e-09,0,8.4803510563909e-09,1.8111257824651e-07,8.3999017119773e-08,1.5422340167896e-09,-7.2684820225878e-07,1.4343016970105e-07,6.8431441843541e-07,2.1512131043168e-06,63.291831970215,100,4.5232076644897
-0.018095179822403,-0.028828140186487,0.00049151271847439,-6.7960651117294e-07,3.1570590612407e-06,-1.0416482771108e-07,-1.1240552456291e-07,-6.123433072168e-08,4.8899050348851e-07,91,0,0,0,0,0,0,-6.7960651117294e-07,3.1570590612407e-06,-1.0416482771108e-07,-1.1240552456291e-07,0,4.8899050348851e-07,-6.9759435412188e-05,0.00024285069701851,-8.0126790546987e-06,-2.612859028834e-05,-4.7103331324369e-06,2.0132642638692e-05,0.00052179683719644,44.246196746826,60,9.4521360397339
-0.018074567420673,-0.032631746397252,0.00052681587686122,-2.5361625025496e-06,3.3182971368418e-06,4.6096434418467e-07,-2.748096485252e-07,-3.6568634378166e-07,8.8779212418952e-07,92,0,0,0,0,0,0,-2.5361625025496e-06,3.3182971368418e-06,4.6096434418467e-07,-2.748096485252e-07,0,8.8779212418952e-07,-0.00030604211713181,0.00025525362591091,3.5458795706513e-05,-0.00013209189759147,-2.8129718752435e-05,-4.2660991998031e-05,0.00069269520636915,38.482845306396,60,8.3988790512085
-0.011542974895027,-0.031132453354654,0.00036768962363327,1.9442820601418e-06,2.7258885070865e-06,-1.06731673684e-07,-4.9054153517247e-07,-1.5557227270854e-07,-1.7179746946995e-07,93,0,0,0,0,0,0,1.9442820601418e-06,2.7258885070865e-06,-1.06731673684e-07,-4.9054153517247e-07,0,-1.7179746946995e-07,0.00022351841167433,0.00020968373131435,-8.210128744923e-06,3.6224288957852e-05,-1.1967097900657e-05,6.074306324266e-05,0.00053929110910767,40.673709869385,50,5.3728876113892
-0.011513900872528,-0.032690885221371,0.00038216332324894,1.2194624084373e-06,3.1906658175988e-06,-2.672435163933e-07,-1.5843006188072e-07,-2.9670874758487e-07,-7.0367544677376e-08,94,2.5098226430164e-07,1.4019773154979e-07,-9.1659895261114e-09,-1.3007070457303e-07,-1.3966265931588e-08,-1.2091155972861e-07,1.4704213625219e-06,3.3308951849612e-06,-2.764081731385e-07,-2.8847737393232e-07,0,-1.9127918671039e-07,0.00015095853921897,0.00024543583212299,-2.0557193568715e-05,4.4966810732973e-05,-2.2823749814221e-05,5.1740850517846e-05,0.00070400942408778,38.453971862793,50,10.804204940796
-0.03065131546162,-0.049939077781244,0.0012709766045318,-5.3033870854135e-10,-1.2639197085973e-10,6.073120710884e-10,2.0738237710869e-10,1.1665564328966e-10,-8.1274901174259e-11,95,0,0,0,0,0,0,-5.3033870854135e-10,-1.2639197085973e-10,6.073120710884e-10,2.0738237710869e-10,0,-8.1274901174259e-11,-6.4116317922811e-08,-9.7224592969019e-09,4.6716313160646e-08,-7.368542103577e-09,8.9735110222816e-09,-2.9572948125342e-08,1.1020581323723e-07,81.99779510498,104.98313903809,20
0,0,0,-1.0060549374596e-07,-4.1916174792697e-07,1.1848821608251e-08,-6.3099578443353e-08,-4.7996863472479e-08,7.0073459054535e-08,96,0,0,0,0,0,0,-1.0060549374596e-07,-4.1916174792697e-07,1.1848821608251e-08,-6.3099578443353e-08,0,7.0073459054535e-08,-1.3140707969003e-05,-3.2243211378998e-05,9.1144781601931e-07,-1.025563756111e-05,-3.6920664209599e-06,-1.1557753580551e-08,5.9692368344625e-05,43.671035766602,0,4.3201308250427
0,0,0,-1.181115212414e-07,-2.7968541834757e-07,1.4698049078094e-08,-1.3583336121964e-08,-2.1629510802958e-08,3.681288825709e-08,97,0,0,0,0,0,0,-1.181115212414e-07,-2.7968541834757e-07,1.4698049078094e-08,-1.3583336121964e-08,0,3.681288825709e-08,-1.4559461390085e-05,-2.1514262949813e-05,1.1306191598534e-06,-6.5188317655132e-06,-1.6638085233044e-06,-2.6421991209706e-06,4.2032292460679e-05,37.671730041504,0,5.0011715888977
-7.7009323045313e-06,-3.3398832290735e-07,-9.2101296503565e-07,-4.0437619893488e-07,-3.7424212101613e-07,1.1243889887916e-08,4.727245193289e-09,-9.8560588257571e-09,1.313575325949e-07,98,0,0,0,0,0,0,-4.0437619893488e-07,-3.7424212101613e-07,1.1243889887916e-08,4.727245193289e-09,0,1.313575325949e-07,-4.658421267653e-05,-2.8787855462779e-05,8.6491460676278e-07,-1.5114716974363e-05,-7.5815837121208e-07,-5.3739256357775e-06,6.7391470605217e-05,43.952186584473,10,4.5678958892822
-0.011575226625649,-0.03484270750654,0.00041605224536401,2.8420405739222e-06,2.6052672432322e-06,4.456520239668e-07,-1.169734540426e-06,-2.9679625262145e-07,4.3157821163369e-07,99,1.1477583872936e-07,6.367176915542e-08,-1.795943164393e-08,-6.0314112661397e-08,9.5777247166004e-09,-5.4461726067967e-08,2.9568064372759e-06,2.6689527402076e-06,4.2769186067237e-07,-1.2300387508772e-06,0,3.771165587312e-07,0.00033999644290535,0.00020040517255633,3.4280924920523e-05,3.1398357186267e-05,-2.2830480970881e-05,0.00015457626119085,0.00067353766523231,35.054691314697,50.000576019287,5.7280192375183
-0.014842169462677,-0.031161881690083,0.00044143132896574,1.247439942669e-06,2.6895004176286e-06,3.219878368183e-07,-5.707002182325e-07,-1.206468585263e-07,-4.4603781003367e-08,100,0,0,0,0,0,0,1.247439942669e-06,2.6895004176286e-06,3.219878368183e-07,-5.707002182325e-07,0,-4.4603781003367e-08,0.00013242630001875,0.00020688464750989,2.4768295139869e-05,-7.4306354352056e-06,-9.2805275789463e-06,3.3038321274728e-05,0.00053253008872814,40.526134490967,54.95304107666,0
-0.018097953045791,-0.024580312240795,0.00044509248715401,2.4323419561678e-07,3.0450965352474e-06,-1.458976626198e-07,-2.3867573284768e-07,1.4028944530905e-07,8.3246415661998e-08,101,0,0,0,0,0,0,2.4323419561678e-07,3.0450965352474e-06,-1.458976626198e-07,-2.3867573284768e-07,0,8.3246415661998e-08,2.3775988803084e-05,0.00023423819501903,-1.12228971246e-05,-1.3294005694182e-05,1.0791495793004e-05,1.1469236498871e-05,0.00041991293228922,50.643821716309,60,10.603805541992
-0.011489989596945,-0.028437600514243,0.00033525454950405,1.0008374168901e-06,2.8945603888105e-06,-6.2739881633648e-08,-3.0397833134791e-07,-4.7216374756917e-08,-1.2452973274661e-07,102,0,0,0,0,0,0,1.0008374168901e-06,2.8945603888105e-06,-6.2739881633648e-08,-3.0397833134791e-07,0,-1.2452973274661e-07,0.00011000649472975,0.00022265849144696,-4.8261447410499e-06,9.6360525575956e-06,-3.6320288274551e-06,2.3439790911542e-05,0.00043855801705561,44.843490600586,50,10.27112865448
-0.018136973042878,-0.026125153936631,0.00046217396007048,-3.9097265296812e-07,2.9915758889878e-06,2.9669276819131e-07,-8.8865760864919e-08,1.5992464099161e-07,1.3390954214959e-07,103,0,0,0,0,0,0,-3.9097265296812e-07,2.9915758889878e-06,2.9669276819131e-07,-8.8865760864919e-08,0,1.3390954214959e-07,-5.0032254363901e-05,0.00023012122222983,2.2822520630101e-05,-2.6793262663655e-05,1.2301895460893e-05,-9.656700893308e-06,0.00042670090588055,48.201469421387,60,5.0380401611328
-0.011492464288093,-0.02414845542741,0.00028577632308865,-1.1263924031034e-07,3.108252816565e-06,-1.2333654605051e-07,-1.7900601500918e-07,2.4259046608039e-07,6.9955834913066e-08,104,0,0,0,0,0,0,-1.1263924031034e-07,3.108252816565e-06,-1.2333654605051e-07,-1.7900601500918e-07,0,6.9955834913066e-08,-2.1454331201168e-05,0.000239096370505,-9.4874266192699e-06,-2.6559467716463e-05,1.8660805083107e-05,-7.4085561839828e-06,0.00043407000032675,51.270080566406,50,9.9726305007935
-0.0075497579953803,0.0028984921315853,-0.00029262099054238,-1.4483106083656e-06,-3.3558557871587e-06,-9.113715781065e-07,2.5716850945546e-06,-1.0924510845855e-06,-3.0654722254658e-07,105,-5.8941909406028e-06,-1.2319321253407e-05,-1.62421935339e-06,8.5220587695332e-06,-4.1115095465507e-06,-2.6278678289305e-06,-7.3385415904712e-06,-1.5677228928424e-05,-2.5347910176399e-06,1.108986223061e-05,0,-2.9344933764965e-06,-6.428385851029e-05,-0.00025814275285836,-7.0105506008192e-05,0.00024494658017588,-8.4034698814271e-05,2.3544094245019e-05,0.0014354136702169,97.249877929688,42.265228271484,15.346884727478
-0.0062883825770483,0.0030932519528451,-0.00010890477563583,-1.2901218219246e-06,-4.4471212921916e-06,1.2231566180801e-07,5.6404349781079e-06,1.136510360963e-06,6.1989574548948e-07,106,-8.1269523403965e-06,-1.3630911024902e-05,3.0211667701877e-07,1.4354764903001e-05,1.5310029903794e-06,-6.2278125626042e-06,-9.4132299277071e-06,-1.80810164004e-05,4.2428979242171e-07,1.9991415601782e-05,0,-5.6079767724024e-06,0.0001875026811023,-0.00034208625324551,9.4088970621544e-06,0.00072062243495095,8.7423873920234e-05,0.00033442710936492,0.0013539667561861,98.57999420166,38.894317626953,10.604221343994
-0.015817526011719,-0.049261741688268,0.00071417328172967,3.5950076938233e-06,-2.8777956843513e-06,-2.0039534942478e-08,-3.2834014070215e-06,3.7099823783246e-07,4.4522318633857e-08,107,4.2767402592592e-06,-9.5816738788265e-06,-6.3324681728943e-07,-2.4105759502154e-06,-7.1822364518279e-07,-1.8661643090438e-06,7.8752441520861e-06,-1.2458290686916e-05,-6.5315791694547e-07,-5.6974602836922e-06,0,-1.8216552629582e-06,0.00029708493445385,-0.00022136889879625,-1.5415026878829e-06,-0.00023202345791882,2.8538325987112e-05,2.3970674823894e-05,0.0012187398152809,11.833399772644,56.260875701904,6.1346769332886
-0.018077885621424,-0.013404366361001,0.0003271078663093,4.0480784147906e-06,3.1891021599666e-06,-3.132769429849e-07,-1.7682360378958e-06,-2.2437724108986e-07,-7.8471302147671e-07,108,2.3663985759275e-06,6.7712122719458e-07,-3.2705937643566e-07,-1.5889303905426e-06,2.4221901881977e-07,-7.7746818538495e-07,6.414320499003e-06,3.8668067811651e-06,-6.4037010657402e-07,-3.3570115626148e-06,0,-1.5621795809702e-06,0.00039764811010416,0.00024531555076666,-2.4098226383454e-05,-4.9760693948632e-05,-1.7259787776143e-05,2.5894922698988e-05,0.00091561675579938,67.360076904297,59.994701385498,4.3705544471741
-0.001932106133154,0.00036118507274967,-1.953586877377e-05,-6.3181041286089e-06,8.3804890917638e-07,-5.1908108342454e-07,-2.507008013901e-06,-6.6764702943179e-09,5.0076647317222e-07,109,-9.921292402498e-06,2.4596817490086e-06,-9.2307762478125e-07,3.2866733254654e-06,7.2520020322325e-07,6.6346190770325e-06,-1.6239748580045e-05,3.2967273640943e-06,-1.4421646584998e-06,7.8015737302369e-07,0,7.1352455376834e-06,-0.00096625872158555,6.4465300705875e-05,-3.992931410958e-05,-0.00067309748199264,-5.1357463802449e-07,-0.00044173021375623,0.0013564189871425,89.33570098877,25.529062271118,13.13897895813
-0.0022790689579535,0.0028280868565173,-5.0321620855266e-05,-4.6472102670169e-06,1.6060097193714e-06,7.6123406413802e-07,7.6405714671251e-06,-1.4909487122301e-06,6.8104893866698e-07,110,-2.0034542087324e-05,5.9891015796738e-06,2.4817204313885e-06,2.5413455318585e-05,-3.1030500203879e-06,-5.3789132312607e-06,-2.4682684893964e-05,7.5910694637868e-06,3.2431920039539e-06,3.3055225373169e-05,0,-4.6981303404294e-06,-0.00014549251253349,0.00012353920918242,5.8556466472156e-05,0.00079972146701589,-0.00011468836247924,0.00026437358021142,0.0014464034495266,99.594314575195,25.752279281616,10.326474189758
-0.0040856313981382,0.0032215622827363,-0.00029670168859806,-3.5023533273916e-06,-1.6118647823656e-06,-1.84674079235e-06,6.7760479367045e-06,-1.1960067824892e-06,1.170975695547e-06,111,-1.4711929650587e-05,-4.4245485839853e-06,-4.8248150788844e-06,1.896720899492e-05,-2.954203580448e-06,-4.2552793443328e-06,-1.8213239917985e-05,-6.0402317479236e-06,-6.6712212566587e-06,2.5742438860186e-05,0,-3.0845286373415e-06,-1.2988507595899e-05,-0.00012398959864351,-0.00014205698402692,0.00077765774348841,-9.2000521729935e-05,0.00034649834032245,0.0013779410890431,99.742668151855,32.411697387695,10.478734016418
-0.0030670444095164,0.0031376013398346,-0.0002515924534142,-4.5966975295008e-06,-7.1417104063315e-07,-1.457596994775e-07,6.1925470148101e-06,-8.3374505725126e-07,2.1996131503455e-06,112,-1.7253126904682e-05,-1.4232652393509e-06,1.0024237211635e-06,2.0004511713967e-05,-1.8565189354501e-06,-2.7513848092856e-06,-2.1849305324759e-05,-2.1409601420898e-06,8.5703102703497e-07,2.6196625537982e-05,0,-5.5185757756813e-07,-0.00013462311944306,-5.4936233894857e-05,-1.1212284575192e-05,0.00069531876858085,-6.4134235173174e-05,0.00038817000977588,0.0013560378018174,99.889945983887,29.332538604736,15.326208114624
4.2062339358441e-05,7.2205518135678e-05,1.4083251752724e-05,3.2378012864665e-06,1.7120589790389e-07,2.6599546926351e-07,-2.5269926605071e-06,3.1530169818188e-07,5.1287222931268e-07,113,2.5332782690708e-06,8.4974496186372e-07,1.0875243230287e-07,-2.2832566801307e-06,6.0281498686396e-07,-2.5002158894008e-07,5.7710448666166e-06,1.0209972119592e-06,3.7473296499536e-07,-4.810212007453e-06,0,2.6284799610854e-07,0.00031965860984004,1.3169684454145e-05,2.0461189943347e-05,-0.00012378707838869,2.4253976783221e-05,0.00011004868236667,0.0010455072077134,79.058609008789,1.4870007038116,10.367547988892
0,0,0,1.8857414519643e-06,-2.4137701395516e-06,-1.9111572720657e-08,-2.779264575904e-06,7.3832263068683e-07,3.0470542992129e-08,114,2.0189081015381e-06,-8.1556298904987e-09,-2.1321851928056e-07,-1.5428892088454e-06,5.1879663927419e-07,-4.7601889269268e-07,3.9046347923311e-06,-2.4218968035194e-06,-2.3234508723648e-07,-4.3221396459897e-06,0,-4.4554772728892e-07,9.5265539711826e-05,-0.00018567462611935,-1.4701209785121e-06,-0.0002635810778165,5.6794048514372e-05,-4.7447607132191e-05,0.00094828815087344,75.519302368164,0.6410716176033,15.432755470276
-0.019529383778088,-0.044311568916532,0.00066978454173058,-2.4757308503333e-07,1.5447140763499e-06,8.3929994195974e-07,-6.3918411218076e-06,-1.1130694006151e-06,-1.5682041781252e-07,115,1.9433734488126e-06,2.5796806004959e-06,8.6908975272651e-07,-4.9978722852182e-06,-9.9852726735259e-07,3.0544988364056e-06,1.6946842352878e-06,4.12546113268e-06,1.708600210892e-06,-1.1388576919041e-05,0,2.8976580590995e-06,-0.00041113454257873,0.00011882415971922,6.4561533996903e-05,-0.00088377054540752,-8.5620723124239e-05,-0.00040415356817712,0.0011221574935623,20.370752334595,62.654186248779,5.400857925415
-0.028382936699432,-0.050439709306481,0.00097176756894418,-6.3146669191672e-06,2.4042424919204e-06,6.9359798249868e-08,5.0750175085009e-07,2.3134056331701e-07,6.0677321293473e-07,116,-1.319782832686e-05,8.910940377855e-06,-4.1027372720912e-07,8.61778692846e-06,-1.0516593571e-06,4.5800413984001e-06,-1.9514111488863e-05,1.1313036355027e-05,-3.407235767683e-07,9.1270251329254e-06,0,5.1866944005554e-06,-0.00078576622197723,0.00018494173014773,5.3353690961437e-06,-0.00026098401659128,1.7795427947463e-05,-0.00025334775027708,0.001376032082072,10.768992424011,84.9697265625,9.1435441970825
-0.029465104092499,-0.050361046421062,0.00098384740570878,-1.5316428566657e-06,2.1516155583969e-06,-5.353859932471e-07,-7.4532385109591e-06,3.9602868332417e-07,2.0703548278955e-07,117,2.6375270867821e-06,2.5806468320153e-06,-1.0823703528989e-06,-1.1364941338784e-05,8.3644009742326e-08,8.7274142520015e-06,1.105734368331e-06,4.733000517098e-06,-1.6178587211099e-06,-1.8817926784291e-05,0,8.9343465311244e-06,-0.00062423286694555,0.00016550888910745,-4.1183537942085e-05,-0.0010797402249681,3.046374487109e-05,-0.00049048837929515,0.001315673987899,13.029516220093,90.310043334961,9.5882749557495
-0.029131444610543,-0.050291666909711,0.00084334290481257,-3.7324787404964e-06,3.3436199081481e-06,-1.1154812511129e-06,-5.4001451863164e-06,1.3234384269693e-07,9.6723106790348e-07,118,-2.7519732655246e-06,9.0118194881711e-06,-3.4574545956748e-06,-6.2293844466668e-06,2.8415725992629e-07,8.9813577121913e-06,-6.4856571501741e-06,1.2355686743368e-05,-4.5727271537727e-06,-1.1628273685761e-05,0,9.9485379770262e-06,-0.00075819410651373,0.00025720153139601,-8.5806250085607e-05,-0.00088647614080757,1.0180295592072e-05,-0.00039667796740604,0.001357541992681,11.821944236755,88.008041381836,4.5698852539062
-0.030021882941417,-0.052099581804445,0.0010828400384971,-5.5914949569873e-07,6.0290547075724e-06,-7.6100449518961e-07,3.175369219433e-06,8.4377815785438e-07,-7.9414140323161e-08,119,-6.1854726898911e-06,1.9637515781577e-05,-1.8508529404703e-06,1.114676225927e-05,2.2339666038698e-06,-4.9612895693793e-06,-6.7475795415173e-06,2.5664946090389e-05,-2.6119467859306e-06,1.4325175792306e-05,0,-5.0407906673773e-06,0.00010334266860459,0.00046377343904403,-5.8538807322278e-05,0.00039061333899933,6.4906012142645e-05,0.00014024538824886,0.001417283413788,3.4524261951447,93.739433288574,9.6745443344116
-8.144361007504e-06,-1.1037580270842e-06,1.773295638825e-06,-7.281351985942e-07,-8.2200790474209e-07,8.0046888961773e-08,1.9107602810937e-09,7.7427600667262e-08,2.0191238164398e-07,120,0,0,0,0,0,0,-7.281351985942e-07,-8.2200790474209e-07,8.0046888961773e-08,1.9107602810937e-09,0,2.0191238164398e-07,-8.6259172392003e-05,-6.3231377287853e-05,6.1574529970594e-06,-3.0101790940058e-05,5.955969282097e-06,-1.471705083522e-05,0.00014038677343131,51.065277099609,5.0000700950623,20
0,0,0,-4.4711968351854e-07,-7.829952433945e-07,2.4130132672777e-08,2.8103016766316e-08,5.6119013993493e-08,9.9997022196228e-08,121,0,0,0,0,0,0,-4.4711968351854e-07,-7.829952433945e-07,2.4130132672777e-08,2.8103016766316e-08,0,9.9997022196228e-08,-5.2798801302733e-05,-6.0230403338039e-05,1.8561640517521e-06,-1.6243208973129e-05,4.3168472302687e-06,-1.0712900863136e-05,0.0001215272023065,51.743362426758,0,11.65953540802
-0.0091453326962428,-0.0038632402945488,0.00016382147942353,-2.3483728892695e-06,1.959571654542e-06,-3.8188291010928e-08,-7.5328103078244e-06,-1.3362803125233e-06,6.4549835001357e-07,122,-7.4911268104432e-07,5.552649136723e-06,-1.0358444667088e-06,-7.3709389650457e-06,-2.4191032310825e-06,8.12005164609e-06,-3.1001254389148e-06,7.5132788603417e-06,-1.0735842900389e-06,-1.4901104163179e-05,0,8.7655447550138e-06,-0.00071347204035229,0.00015073628111861,-2.9375608469945e-06,-0.0011122749187027,-0.00010279079327102,-0.00048317425271513,0.0012289389711555,82.669311523438,45.299758911133,14.600462913513
-0.025360815602542,-0.053779644564765,0.0008635706133412,-3.5325443047383e-06,-2.598706438584e-06,-1.4331884730676e-06,8.7689927761596e-06,2.9614213650469e-07,-1.0731887278578e-06,123,-1.4345004592222e-05,-7.4682075928821e-06,-4.5705172932856e-07,2.4392512021821e-05,-5.2015642356103e-08,-1.0047507429599e-05,-1.7875400579958e-05,-1.007265995361e-05,-1.8903186614309e-06,3.3159419074993e-05,0,-1.1120758751471e-05,-3.1546115158905e-05,-0.0001999004952757,-0.00011024526715905,0.00091472596798709,2.2780164346515e-05,0.00015763508306267,0.0013066549469434,0.39720407128334,75.736923217773,15.312989234924
-0.026510392961656,-0.050361641260624,0.0010859297368838,-6.1211228457753e-06,-3.2906675470164e-07,-1.0873470253122e-06,-5.2036596869001e-06,-9.6950838233482e-08,7.1177906007933e-07,124,-3.17015661149e-06,-4.855512527657e-07,-1.113128596599e-06,-5.9485544445597e-06,5.1697368696679e-07,9.1187110560497e-06,-9.2911665045333e-06,-8.1412618965062e-07,-2.2006343425556e-06,-1.1152252642813e-05,0,9.8304156747507e-06,-0.0010831442654017,-2.5312827284742e-05,-8.3642078870171e-05,-0.0010125701762575,-7.4577567871909e-06,-0.00055753642648982,0.0012423010283938,10.138875961304,78.656661987305,15.236166954041
-2.3359043812125e-06,8.3504396040332e-08,2.9739592710402e-07,-1.4862144156474e-07,-1.1508051049768e-07,8.1781133051238e-09,1.3622395841833e-08,8.4750506778786e-09,4.8454809803246e-08,125,0,0,0,0,0,0,-1.4862144156474e-07,-1.1508051049768e-07,8.1781133051238e-09,1.3622395841833e-08,0,4.8454809803246e-08,-1.6425355269576e-05,-8.85234696136e-06,6.2908563885567e-07,-3.9450600844551e-06,6.5192697522143e-07,-1.2656436258848e-06,2.2015245276372e-05,29.551010131836,10,14.689151763916
-0.0001358210495164,-3.728958487205e-05,-1.5623311625654e-05,-4.0808959717844e-06,-5.578950505574e-06,-2.9938640327323e-07,-2.7606279532732e-06,1.1866803867069e-07,8.4397186483126e-07,126,-1.4040947615108e-06,-1.9195763740542e-06,2.8499476208725e-07,1.0105876538484e-07,2.2735651703789e-07,1.3030359961259e-06,-5.4849839712701e-06,-7.4985257760678e-06,-1.4386568097976e-08,-2.6595707333269e-06,0,2.1470026443707e-06,-0.00065992769361186,-0.00042915003889031,-2.302972332871e-05,-0.00055836861526484,9.1283106669762e-06,-0.00028109170617988,0.001009929417439,72.804931640625,10.327878952026,4.7239127159119
0,0,0,3.2182153709723e-06,-1.5494154772905e-06,8.1899167641677e-07,-2.1010626139897e-06,2.3047023143568e-07,3.1307496780061e-07,127,1.2294166180381e-06,1.1722266890422e-07,4.755444228708e-07,-1.0094889204889e-06,-1.8701851309371e-07,-2.1992769754918e-07,4.4476300453803e-06,-1.4321763543478e-06,1.2945481270435e-06,-3.1105438313705e-06,0,9.3141510773451e-08,0.0003300681665046,-0.00011918580594542,6.2999359724367e-05,-7.9107063107866e-05,1.7728479341206e-05,0.00010659582779908,0.00095147780178591,76.301765441895,0.77396714687347,5.5010151863098
-0.030633546354192,-0.04996056134429,0.0012471373280919,-1.2183298208212e-09,-1.5298708744169e-09,3.7493559764552e-09,-8.3638307118247e-10,1.609802887718e-09,8.0287283058536e-10,128,0,0,0,0,0,0,-1.2183298208212e-09,-1.5298708744169e-09,3.7493559764552e-09,-8.3638307118247e-10,0,8.0287283058536e-10,-1.6593922052962e-07,-1.1768237495515e-07,2.8841199818886e-07,-1.3655870132663e-07,1.2383099136292e-07,-1.0462093498338e-08,8.6646906243094e-07,69.490646362305,100,15.165599822998
-2.1467333960906e-05,8.1958562930827e-08,-1.6312815858716e-06,-1.4478234910536e-06,-1.1122717951932e-06,2.3030574031636e-08,3.90142286304e-08,4.0397850397671e-09,5.827159645479e-07,129,0,0,0,0,0,0,-1.4478234910536e-06,-1.1122717951932e-06,2.3030574031636e-08,3.90142286304e-08,0,5.827159645479e-07,-0.00015903026649693,-8.5559368861012e-05,1.7715826178181e-06,-4.4658134213544e-05,3.107526953667e-07,-2.834923758352e-06,0.00021379717810132,54.855381011963,10,6.5534973144531
-0.02793039278206,-0.053351202734242,0.00093848991552369,-3.9587284810063e-06,2.1646940991014e-06,-9.9280684270382e-07,7.0039002754807e-06,9.7267159187886e-07,1.4385199874009e-06,130,-1.5207650115602e-05,9.2911555863505e-06,-9.7059548309686e-07,2.0049121620289e-05,1.2113098643086e-06,-4.8414715046878e-06,-1.9167946943567e-05,1.1452290148457e-05,-1.9634636572904e-06,2.705457451897e-05,0,-3.4029357935271e-06,-4.5843049584605e-05,0.00016651493070011,-7.6369757131063e-05,0.00079743608552978,7.4820891682989e-05,0.00036932990952364,0.0013125339298693,0.39392378926277,84.044807434082,10.30792427063
-0.027050337373072,-0.050588299028857,0.00090421897435572,-6.5563882715876e-06,-5.4548233773522e-07,-6.024131754319e-07,-6.7665132142713e-06,-2.7799720117268e-07,1.8222168384331e-06,131,-3.5246891042079e-06,-1.0973156934738e-07,-6.6667399603614e-07,-9.0639256158341e-06,-1.6428639840565e-07,1.2588614720042e-05,-1.0080949240691e-05,-6.542253618455e-07,-1.2691103537174e-06,-1.5830497456567e-05,0,1.4410762049833e-05,-0.0011678385967044,-4.1960179825786e-05,-4.6339475033223e-05,-0.0011840020538339,-2.1384400090206e-05,-0.00052333051131817,0.001268697856746,10.102447509766,80.614967346191,10.231862068176
-0.028741317951574,-0.050431358804435,0.0011060068356516,-5.6687812549724e-06,2.1554093369924e-06,1.9240799721012e-08,-2.3519448403902e-06,3.9487789208389e-07,1.8758070208611e-06,132,-1.1559410360723e-05,7.4573629002889e-06,7.807388281896e-07,2.4570965788005e-06,9.3250934137656e-07,9.1023137819221e-06,-1.7229656833793e-05,9.6116199370498e-06,7.9970472286727e-07,1.0666735357073e-07,0,1.0978070405721e-05,-0.0007905746585268,0.00016580071823018,1.4800615170009e-06,-0.00053543339586664,3.0375222467991e-05,-0.00021022171423192,0.0013922292272583,11.180743217468,86.099197387695,14.680634498596
-5.1727150921984e-05,-1.3879125030552e-06,3.4944699654259e-06,-3.6160527888486e-06,-3.0182120097325e-06,2.8354402898571e-07,-3.0077319112625e-07,8.159311852352e-08,1.6207381276133e-06,133,0,0,0,0,0,0,-3.6160527888486e-06,-3.0182120097325e-06,2.8354402898571e-07,-3.0077319112625e-07,0,1.6207381276133e-06,-0.00041062451370152,-0.00023217015459481,2.1811079152747e-05,-0.00015560300618442,6.2763937325785e-06,-7.7944432044522e-06,0.00055716666524404,65.002395629883,10.001998901367,10.640411376953
-7.2413616534505e-05,-4.9276001789721e-06,-1.216996642372e-05,-4.291569777581e-06,-3.9513271640364e-06,-3.4013021017195e-07,-6.6034816403644e-07,-1.151941188626e-07,1.5530063072916e-06,134,-3.596771544968e-07,-3.620604123052e-07,1.2075769587548e-08,7.5474301131434e-08,4.0088686523398e-09,2.8420285336536e-07,-4.6512468559639e-06,-4.3133875436335e-06,-3.2805422061873e-07,-5.8487386584193e-07,0,1.83720908748e-06,-0.00052621180794811,-0.00030394824338741,-2.6163862320919e-05,-0.00024688706844468,-8.8610860663542e-06,-7.6629032188672e-05,0.0007019242822849,67.317085266113,10.003287315369,5.2023816108704
0,0,0,-1.506087409653e-06,-2.8831744611688e-06,-1.2884205985526e-07,-5.0459928726146e-07,-2.6666563991144e-07,8.9396590939631e-07,135,0,0,0,0,0,0,-1.506087409653e-06,-2.8831744611688e-06,-1.2884205985526e-07,-5.0459928726146e-07,0,8.9396590939631e-07,-0.00018027907694551,-0.00022178265085914,-9.9109276811738e-06,-0.00010324152906924,-2.0512741531649e-05,4.3404091352058e-06,0.00046117602813665,64.127952575684,0,5.5079879760742
-0.030625749644909,-0.049946942268777,0.0012629870094177,1.2490949739249e-09,2.2267967394266e-11,5.1174398295492e-10,1.4094062032541e-10,2.4940025375359e-10,-1.3447610244014e-09,136,0,0,0,0,0,0,1.2490949739249e-09,2.2267967394266e-11,5.1174398295492e-10,1.4094062032541e-10,0,-1.3447610244014e-09,9.8696223177815e-08,1.7129205687897e-09,3.9364921765763e-08,1.3453580593238e-08,1.9184634904123e-08,-1.0083116130882e-07,2.254430686096e-07,77.692993164062,100,11.123912811279
-0.030650036647008,-0.049952497416209,0.0012557105953329,8.7488936165289e-10,-2.9590993046116e-10,2.496143575477e-09,-9.3448992822149e-11,9.0264072070403e-10,-1.2625230063689e-09,137,0,0,0,0,0,0,8.7488936165289e-10,-2.9590993046116e-10,2.496143575477e-09,-9.3448992822149e-11,0,-1.2625230063689e-09,3.9544414115326e-08,-2.2762302343166e-08,1.9201104426746e-07,-3.4943151613523e-08,6.9433901592617e-08,-1.2487192188635e-07,4.6953228302905e-07,74.264022827148,110,14.935060501099
-0.03063971019766,-0.049948855176016,0.0012602788529736,2.1449246463932e-09,2.2762938154545e-10,-3.5066150217661e-10,-2.0184549209574e-10,5.0563157157675e-10,-2.0066983352963e-09,138,0,0,0,0,0,0,2.1449246463932e-09,2.2762938154545e-10,-3.5066150217661e-10,-2.0184549209574e-10,0,-2.0066983352963e-09,1.6132386620339e-07,1.7509952426573e-08,-2.6973961705893e-08,-1.9196913680374e-08,3.8894736275135e-08,-1.5803174777272e-07,3.4444417332449e-07,76.621978759766,110,9.5833053588867
0,0,0,-5.7528867739323e-07,-8.7257995350161e-07,3.2673981861275e-08,-4.1450969087574e-08,-3.1592620710037e-08,2.8197034063299e-07,139,0,0,0,0,0,0,-5.7528867739323e-07,-8.7257995350161e-07,3.2673981861275e-08,-4.1450969087574e-08,0,2.8197034063299e-07,-6.3566588983007e-05,-6.7121534884739e-05,2.5133832200981e-06,-2.2502149882572e-05,-2.4302015930798e-06,2.3764124036255e-06,0.00014211971276943,52.223785400391,0,5.6556015014648
-0.030690920341233,-0.050033467462899,0.001148214779145,2.5718928279025e-06,-1.5091981434728e-06,6.888051803811e-07,-3.8916928448945e-06,-2.2239561074909e-06,6.088840795022e-08,140,2.0193167776425e-06,-1.2839280343485e-06,6.8574209716955e-07,-2.5571142375407e-06,-1.598287243103e-06,5.3779745989824e-07,4.5912341228966e-06,-2.7930831232422e-06,1.3745672147088e-06,-6.4488422337152e-06,0,5.9869650177683e-07,0.0001252083939324,-0.00011609216488253,5.2985013875469e-05,-0.00037199050397506,-0.00017107354673007,-6.7945792217778e-05,0.0010856996264244,20.246898651123,102.5592956543,20
-1.1975016862034e-05,2.5781143329838e-07,-4.1151328350455e-08,-7.1722574998645e-07,-6.0691735733192e-07,2.3412218510825e-08,1.7979197441743e-08,2.0361455734945e-08,2.1080019800956e-07,141,0,0,0,0,0,0,-7.1722574998645e-07,-6.0691735733192e-07,2.3412218510825e-08,1.7979197441743e-08,0,2.1080019800956e-07,-8.3350808914448e-05,-4.6685950563994e-05,1.8009398854481e-06,-2.6796582189202e-05,1.566265825765e-06,-1.1964197530139e-05,0.00011060847999213,49.003723144531,10,8.1097316741943
-0.011218949258459,-0.0086066058241644,8.7386230622036e-05,1.1672422429857e-06,1.1481259279061e-06,-7.7419001419864e-07,-5.2614663910987e-06,9.5224244225306e-08,7.2237135180968e-07,142,1.4103621578236e-06,1.6120009438809e-06,-1.0931738920315e-06,-4.0661578183167e-06,3.0990558947991e-07,2.6557956604932e-06,2.5769145603323e-06,2.7607486049839e-06,-1.8673818643722e-06,-9.3269317315526e-06,0,3.3781643749169e-06,-0.00010474210417245,8.8317379069697e-05,-5.955307801528e-05,-0.00059925815294817,7.3249418634851e-06,-0.00013896294195522,0.0010962593496716,74.86304473877,49.264495849609,8.7299451828003
-0.011537050194063,-0.010232300510214,8.1644969242879e-05,1.4518171072187e-06,2.4252802353446e-06,-1.2616110793245e-06,-4.0858106332236e-06,3.7087008137263e-07,1.251534942314e-06,143,1.5468716681264e-06,1.8251367446407e-06,-9.2214682712732e-07,-3.0104361741744e-06,6.0474103348953e-07,1.463564506048e-06,2.9981346016391e-06,4.2509609708142e-06,-2.1838243753126e-06,-7.095699579828e-06,0,2.7151063944979e-06,3.1921013034654e-05,0.00018656001810343,-9.7047006101886e-05,-0.00039405035161475,2.8528467797894e-05,1.6514692657367e-05,0.0010729489096717,72.146179199219,49.796653747559,3.9437534809113
-0.030627243579201,-0.049963208816619,0.0011588171669009,3.7963297876087e-06,-3.8322690877128e-06,-4.0458581460965e-09,-3.2541600151883e-06,-2.6172145130246e-07,1.3175283716267e-07,144,4.5596571091919e-07,-3.3179633056142e-07,-4.468290114049e-08,-3.8690299177811e-07,4.2627864665508e-09,-6.9062719141075e-08,4.2522960779576e-06,-4.1640649378157e-06,-4.8728012871083e-08,-3.6410633634911e-06,0,6.2689895116626e-08,0.00033090551883047,-0.00029478992982406,-3.1121985739205e-07,-0.00021143985061546,-2.0132419330958e-05,4.9014984180769e-05,0.00090382974034548,27.571491241455,104.33771514893,0
-0.01328765033392,-0.00035387965210172,8.9140533641526e-05,3.6489995343899e-06,-2.662157094047e-06,6.5503881110288e-07,-1.6471161913415e-06,-7.2825032289919e-07,1.2522538808324e-07,145,6.4037479385884e-06,-8.5484689112793e-06,1.5103362690246e-06,-1.9732609764552e-06,-1.6285595349009e-06,-4.4304869621333e-06,1.0055892005608e-05,-1.1209008889548e-05,2.1655650083112e-06,-3.6235260392338e-06,0,-4.305257235243e-06,0.00040341008328759,-0.00020478131492669,5.0387600854068e-05,-3.9834340763657e-06,-5.601925560763e-05,0.00013235053357169,0.0012691614777823,89.176979064941,52.877899169922,9.5816555023193
-0.022291792309929,-0.053259004645235,0.00087782778128735,-1.8934597714552e-06,-4.0987234722815e-06,7.5918543813246e-07,2.8427901158632e-06,-1.9515437500868e-06,9.1499615071027e-07,146,-8.2342567356658e-06,-1.429343674397e-05,5.2616007203081e-06,1.179332917076e-05,-5.164979830527e-06,-3.5590724350945e-06,-1.0122882285095e-05,-1.8395556222518e-05,6.0215707447615e-06,1.4631676614833e-05,0,-2.6444678346199e-06,-3.809345385512e-05,-0.00031528642094473,5.8398879856343e-05,0.00032623346055399,-0.00015011875000668,0.00017794161708069,0.001461864922971,2.6024820804596,68.106887817383,10.205679893494
-0.020803319239202,-0.05269940601395,0.0010116957810903,8.2765614887017e-07,-6.4270152904302e-06,-1.6953068390011e-06,3.349904221696e-06,-6.7506728957522e-07,1.7797574330457e-06,147,-4.0482971622865e-06,-1.9006462408453e-05,-3.4300208255263e-06,8.0785971443409e-06,-3.5524624096766e-07,-4.0302999820544e-06,-3.2139553423395e-06,-2.5435930452778e-05,-5.1254221342447e-06,1.1421745515009e-05,0,-2.2504723690571e-06,0.00040735726935224,-0.00049438579157155,-0.0001304082183847,0.0006013763518773,-5.1928253044247e-05,0.00048059582967343,0.001373447455738,4.1729259490967,65.014457702637,5.867359161377
-0.023666820984843,-0.04910608340816,0.00067413982584396,-5.3594642432388e-06,-1.0219568697084e-06,-2.2531091030701e-06,-8.5992213007266e-06,-6.6213905094043e-07,4.9832792771866e-07,148,-2.6972822661884e-07,8.9565709467098e-07,-4.6181368419736e-06,-1.2489818545888e-05,-9.101341949227e-08,1.2759546772506e-05,-5.6300492551487e-06,-1.240091581298e-07,-6.871192637236e-06,-2.1088241617862e-05,0,1.3257933256764e-05,-0.0011888255734941,-7.8612066900648e-05,-0.00017331608485155,-0.0014380376548394,-5.0933773149264e-05,-0.00073822617572818,0.0013134882970672,12.301692962646,71.067993164062,6.4509539604187
-0.02248493312672,-0.048241152347814,0.00085169314853637,-3.813929026144e-06,-2.5318915434813e-06,1.8878969644985e-07,-3.7976494561349e-06,-1.3717602612738e-06,8.6080040133001e-07,149,-3.9562194335868e-06,-7.6090455070424e-06,1.430167516019e-06,-3.4528025469033e-06,-3.8632897038882e-06,7.4090219804901e-06,-7.7678272212291e-06,-1.0140989953435e-05,1.61961855351e-06,-7.2525604484627e-06,0,8.2696095887428e-06,-0.00068284712206582,-0.0001947608879601,1.4522284342296e-05,-0.00068159484744974,-0.00010552002009798,-0.00032325255072167,0.0013815597228894,13.931197166443,68.375190734863,11.51819896698
-0.029050065186597,-0.052832705223261,0.0012181837816683,-3.316379803124e-06,4.9888520324618e-06,-1.3772983353409e-06,5.9883476669987e-06,-2.4101648890718e-07,3.2218595473826e-07,150,-1.3043333721281e-05,1.5878603543007e-05,-2.9232475946205e-06,1.7739075016856e-05,-6.8326541991424e-07,-4.6957412955754e-06,-1.6362498964381e-05,2.086454309248e-05,-4.3002948454058e-06,2.3730215231335e-05,0,-4.3735624483408e-06,-8.2366495320322e-05,0.00038375784865091,-0.00010594602579546,0.00063338177161219,-1.8539729915937e-05,0.00019752317836139,0.0013887577552301,1.3320569992065,88.480728149414,7.2062668800354
-0.0245827746526,-0.049822496643455,0.0010314374361236,-5.6364641302966e-06,-3.0514219138614e-06,2.8262680277138e-07,-1.6821805285866e-07,-5.214040607187e-07,-3.3761809517491e-07,151,-1.0320816158205e-05,-1.0397532115364e-05,3.660985572173e-06,8.25224049723e-06,-3.0041597261568e-06,2.0685756609749e-06,-1.5954031650279e-05,-1.3451664386892e-05,3.9440131720175e-06,8.0811102305268e-06,0,1.7306211414223e-06,-0.00078793764146494,-0.00023472476260472,2.1740523290106e-05,-0.00036730332781587,-4.0108004670669e-05,-0.00038033410030173,0.0013663699932191,11.372249603271,73.129249572754,14.956450462341
-0.030625343018293,-0.049994808997591,0.0012004815269169,-1.4723704219828e-07,-9.3531790127687e-07,2.7577035301657e-08,-5.7040521473931e-07,9.0001069401002e-08,3.7733222713156e-07,152,0,0,0,0,0,0,-1.4723704219828e-07,-9.3531790127687e-07,2.7577035301657e-08,-5.7040521473931e-07,0,3.7733222713156e-07,-3.0959197273292e-05,-7.1947530867451e-05,2.1213104078198e-06,-6.3510595161064e-05,6.9231591846924e-06,9.3922849828496e-06,0.00015492360363692,45.372589111328,100,11.177121162415
-0.030775300431906,-0.050819964585165,0.0011292836399148,4.865135372492e-06,3.7452933594972e-06,-8.4185450828742e-07,-3.882122568455e-07,-1.1744692073402e-06,-1.3852962902891e-06,153,8.8635898098353e-06,8.5077944409726e-06,-1.9127541343498e-06,-3.1332337196606e-06,-3.5482051523933e-06,-5.7303560901746e-06,1.3728117081176e-05,1.2253477047686e-05,-2.7545143781884e-06,-3.5207916680128e-06,0,-7.1156985878057e-06,0.00055260426857769,0.00028809948919209,-6.4758039099033e-05,0.0001485006047825,-9.0343785180016e-05,7.1801832979146e-05,0.0012879274365018,10.268667221069,102.43104553223,8.5650997161865
-0.03073212070514,-0.050608217505342,0.0012293460812564,3.3743509940712e-06,2.0506732899409e-06,3.079297843022e-07,-1.1462828557838e-06,-1.0455864603078e-07,-5.3590673409339e-07,154,6.4394705230036e-06,4.5161635999187e-06,-2.1167051137107e-07,-3.2270502275156e-06,-2.0321377112926e-07,-3.212420295488e-06,9.8134241338794e-06,6.5670333089967e-06,9.6156897814792e-08,-4.3729831402628e-06,0,-3.7482795894226e-06,0.00035719015747821,0.00015774409922623,2.3686906484785e-05,9.4490921047504e-06,-8.0429727715986e-06,5.640110146555e-05,0.0012849273662613,10.521839141846,102.56763458252,3.619357585907
-0.030777608041614,-0.050347133117923,0.001174378011344,5.7917722931353e-06,3.0500364503887e-06,-1.0873721700269e-07,-1.5363024355983e-06,-9.2276455672867e-07,7.0846062153529e-07,155,6.2304480464539e-06,4.4878467190609e-06,-6.183648790398e-08,-3.6451878240359e-06,-1.4598809072324e-06,-2.585260222418e-06,1.2022088687085e-05,7.5380597385542e-06,-1.7050302175189e-07,-5.1813255386381e-06,0,-1.8768326693747e-06,0.00073190155018765,0.00023461818849144,-8.3644013078993e-06,0.00016820349413122,-7.0981888979128e-05,0.00034087757544919,0.0011250744151203,15.098623275757,105.87919616699,5.5648393630981
-0.030133523305189,-0.050160148306366,0.0011379410711241,-1.1231299483256e-06,3.1873000443512e-07,7.8334374484382e-07,-5.3677397213709e-06,-3.6674843384438e-07,-6.5936995475597e-08,156,1.3620695434437e-06,-8.0904117946933e-07,1.0245468358339e-06,-6.2941447925027e-06,-9.3247236451026e-07,4.932075249059e-06,2.3902078916211e-07,-4.9011086057985e-07,1.8078837142805e-06,-1.1661945520841e-05,0,4.8661180665064e-06,-0.00046467191901575,2.4517692648856e-05,6.0257211141833e-05,-0.00079118036309616,-2.8211417988029e-05,-0.00038334938418113,0.0012191133042197,17.140342712402,95.136512756348,10.345220565796
-0.011517619259328,-0.011946083383123,0.00017532261636464,-4.9934620194792e-06,4.1360046331915e-06,8.3702880686534e-07,-1.404125709714e-06,-3.7873240128135e-07,1.8652147607425e-06,157,-2.5769759324548e-06,2.0339362964748e-06,2.5737625778276e-07,1.8381351209007e-07,-6.6833939256002e-08,2.3931624203648e-06,-7.5710364637592e-06,6.1694479433936e-06,1.0944230822352e-06,-1.21971243849e-06,0,4.2583759337984e-06,-0.00064559551890903,0.00031815420255319,6.4386831297334e-05,-0.00036949272585017,-2.9133261637027e-05,-0.00011800499735351,0.0010254786314204,69.835289001465,49.92130279541,14.10412979126
-0.018007764491539,-0.015521631914388,0.00032797802452251,5.5570934336174e-06,2.1115432877462e-06,-3.6619075545528e-07,-1.8958777127977e-06,9.9515502763265e-08,-5.0615916849954e-07,158,2.1230192385729e-07,1.3939178496028e-07,-1.1950528669547e-08,-1.656516242752e-07,-4.7452708758531e-08,-4.6650299582095e-08,5.7693686222314e-06,2.2509707264993e-06,-3.7813702385179e-07,-2.0615024325755e-06,0,-5.5280963733567e-07,0.00060949121906597,0.00016242640674971,-2.8168519650406e-05,3.6185746264809e-05,7.6550386740973e-06,0.00014308717274928,0.000677343972051,64.413887023926,59.999668121338,15.874581336975
-0.011535990390265,-0.015562433571626,0.00019486730383326,-1.4002640769512e-06,2.4671364677861e-06,1.3473285092002e-07,-1.1379380573055e-07,-4.3710939804046e-07,9.3355204862268e-07,159,-1.6076358575712e-07,1.0449017947383e-07,-4.2833157637341e-08,2.5809318607345e-08,-3.4199402722455e-08,1.3495426714978e-07,-1.5610461056611e-06,2.5716099846925e-06,9.1903147993336e-08,-8.7965966615952e-08,0,1.0685062382181e-06,-0.00014120334249965,0.00018977972829124,1.0364065455386e-05,-4.2244090867294e-05,-3.3623799849266e-05,3.8320974852185e-05,0.0006958314928069,64.189376831055,49.99991607666,9.1916980743408
0,0,0,-1.2926884994368e-06,-1.9875849490511e-06,6.092816012993e-08,-7.2181774167592e-08,1.2493307581297e-07,5.7061166364444e-07,160,0,0,0,0,0,0,-1.2926884994368e-06,-1.9875849490511e-06,6.092816012993e-08,-7.2181774167592e-08,0,5.7061166364444e-07,-0.00014526018899282,-0.00015289114992701,4.6867815484561e-06,-5.137505627981e-05,9.6102366009979e-06,-1.9294072173459e-06,0.00031947477421261,61.340103149414,0,10.862846374512
0,0,0,-8.7392829734655e-07,-1.6196999004629e-06,4.1882438344374e-08,-1.6755631754688e-07,-1.0246997452982e-07,5.0726442064881e-07,161,0,0,0,0,0,0,-8.7392829734655e-07,-1.6196999004629e-06,4.1882438344374e-08,-1.6755631754688e-07,0,5.0726442064881e-07,-9.8045649463847e-05,-0.0001245923000356,3.2217260264903e-06,-4.3709343325411e-05,-7.8823057330633e-06,8.1999442281036e-06,0.00025704837732276,57.993251800537,0,5.4628124237061
-0.028887464910038,-0.052965724078258,0.0010171758174617,-3.1800036676109e-06,6.5761128006565e-06,-6.6347897701466e-09,1.2542007151002e-05,6.6755092177095e-07,8.2835999310174e-07,162,-2.5719811372621e-05,2.6326444403042e-05,-3.3330844845422e-07,3.8155258849081e-05,2.6143130166293e-06,-1.2435447476459e-05,-2.8904502286122e-05,3.289669324301e-05,-3.402706719786e-07,5.070206914592e-05,0,-1.1607203383305e-05,0.00034328991844298,0.00050585483081973,-5.103684438574e-07,0.0015526753660286,5.1350070905457e-05,0.00065162558465165,0.0015420334732985,1.361209154129,88.673156738281,14.012403488159
0,0,0,-1.0634336775997e-06,-4.8864110908819e-06,-3.0484187472465e-08,-2.1742596890747e-06,-3.205584293238e-07,8.3770195411261e-07,163,-2.5592299826269e-07,-4.6397360686732e-07,2.3276788209501e-08,-1.7395761611975e-08,1.2696285165409e-08,2.7331875987466e-07,-1.3193564789357e-06,-5.3503846607301e-06,-7.2071235312784e-09,-2.1916555553482e-06,0,1.1110206217221e-06,-0.000220263633617,-0.00037587777622168,-2.3449374978819e-06,-0.00030571178834585,-2.4658340717215e-05,-7.4022431177595e-05,0.00076699130334242,70.292640686035,0.067734703421593,5.6223168373108
-0.027749586696504,-0.050381780001937,0.00084602806103987,-6.641780983527e-06,1.0532830649651e-06,-2.7626747391274e-07,-1.7132007501183e-06,-6.2019210389937e-08,-1.1756616739863e-07,164,-1.0129332847897e-05,2.5439973508519e-06,-1.4078845945438e-06,5.4232992241987e-06,-1.8849222650011e-06,4.7060336236981e-06,-1.6771567459448e-05,3.5956773092964e-06,-1.6837708915907e-06,3.7106569525905e-06,0,4.5883626058137e-06,-0.00099970706994691,8.1021774228085e-05,-2.1251344147134e-05,-0.00062058551353086,-4.7707084915336e-06,-0.00049784439178319,0.0012834079060158,10.291080474854,82.333915710449,4.5322914123535
-0.018111275952246,-0.039821065930906,0.00063610939051626,-1.4672834216932e-06,3.9093254303826e-06,-5.8092464898741e-07,-3.3126855470598e-06,4.8630722673987e-07,4.6406759442249e-07,165,4.3687452072706e-07,1.2880020709545e-06,-3.0846691228572e-07,-7.4837540495541e-07,3.1228596132076e-07,3.1150088422835e-07,-1.0307243629493e-06,5.1975178920653e-06,-8.8941767019697e-07,-4.060747611878e-06,0,7.7557060049676e-07,-0.00036186226557239,0.00030071734079866,-4.468651146057e-05,-0.00050381627521598,3.7408248210759e-05,-0.00021329680279426,0.00099626413429776,27.614011764526,60.266998291016,12.858672142029
-0.030597756943334,-0.049979463495583,0.0011836381488958,-1.976612337707e-06,-5.5448479524579e-06,-1.2303563152325e-06,-2.4908329463492e-06,-8.6566364302194e-07,7.7882920232081e-07,166,-8.4895590479559e-07,-2.0694494393369e-06,-5.8808976573804e-07,-2.2919446188791e-07,-1.7064466674378e-07,1.0781503666835e-06,-2.8255692750988e-06,-7.6142959524663e-06,-1.8184479599474e-06,-2.72002296004e-06,0,1.8569761534035e-06,-0.00036485187684681,-0.00042652676557368,-9.4642793479419e-05,-0.00040440730828082,-6.6589511001687e-05,-0.00015289483530621,0.00091122986330402,31.257558822632,99.955017089844,14.2712059021
0,0,0,-2.0186955003309e-08,-4.9047349702779e-08,-3.2858318487849e-09,-3.0594159756393e-09,4.239382772631e-09,8.5379989808207e-09,167,0,0,0,0,0,0,-2.0186955003309e-08,-4.9047349702779e-08,-3.2858318487849e-09,-3.0594159756393e-09,0,8.5379989808207e-09,-2.4014026155312e-06,-3.7728730540599e-06,-2.5275629606038e-07,-1.0838996134027e-06,3.2610636712546e-07,-1.9179077059809e-07,7.3229920004038e-06,17.025539398193,0,14.690372467041
-5.0854658255518e-07,-4.8000404278832e-08,1.33012315856e-07,-3.4918932627337e-08,-4.3760000273726e-08,4.8267192255358e-09,-5.3329795842503e-10,5.3220221432402e-09,1.0767852166958e-08,168,0,0,0,0,0,0,-3.4918932627337e-08,-4.3760000273726e-08,4.8267192255358e-09,-5.3329795842503e-10,0,1.0767852166958e-08,-4.1101704954954e-06,-3.3661538672097e-06,3.7128609427199e-07,-1.4651216748099e-06,4.0938631871078e-07,-5.9580243439577e-07,7.2084350832231e-06,16.218490600586,5.1353712081909,20
-8.1405289809175e-07,-1.8092752539012e-08,9.9518133858446e-08,-3.4124506737131e-08,-3.5542900952121e-08,2.5217561585672e-09,8.4393471358853e-10,3.2730572941908e-09,1.4170711045638e-08,169,0,0,0,0,0,0,-3.4124506737131e-08,-3.5542900952121e-08,2.5217561585672e-09,8.4393471358853e-10,0,1.4170711045638e-08,-3.7274540361968e-06,-2.7340693040093e-06,1.9398124296671e-07,-1.037573924603e-06,2.5177363801468e-07,-1.2437283676123e-08,6.1780913246426e-06,15.107339859009,10,15.462034225464
0,0,0,-1.2580872330168e-08,-3.632765516767e-08,-4.055300225212e-10,-2.410100031134e-09,3.6836918395494e-09,6.9455266788434e-09,170,0,0,0,0,0,0,-1.2580872330168e-08,-3.632765516767e-08,-4.055300225212e-10,-2.410100031134e-09,0,6.9455266788434e-09,-1.4319197378471e-06,-2.7944350128977e-06,-3.1194617117015e-08,-6.4955263792138e-07,2.8336091073457e-07,7.0110955153807e-08,5.2844003321548e-06,10.913673400879,0,14.917555809021
-0.030613840930161,-0.049993735539077,0.0011849707000951,-5.340211908088e-07,-1.630007495714e-06,4.6885069212791e-07,-6.237531834989e-07,1.9368806001951e-07,5.005328447611e-07,171,0,0,0,0,0,0,-5.340211908088e-07,-1.630007495714e-06,4.6885069212791e-07,-6.237531834989e-07,0,5.005328447611e-07,-7.8996333689904e-05,-0.000125385191978,3.6065437855993e-05,-8.5898794666066e-05,1.4899081539963e-05,5.8474596931866e-07,0.00027435050410315,40.217102050781,100,6.0831165313721
-0.023495577220986,-0.053509388376846,0.00097387273617691,-2.0766528462763e-06,-2.844793710467e-06,-3.8901354896669e-07,5.4768894234759e-06,-4.2931864649409e-07,3.5725211661106e-07,172,-7.8177761460647e-06,-8.0485122834321e-06,-1.1308066971433e-06,1.2765788803453e-05,-1.6069392283786e-08,-4.9480126573882e-06,-9.8917952917872e-06,-1.089634743255e-05,-1.5198632100784e-06,1.8239990287924e-05,0,-4.5907063023261e-06,5.7035667237057e-05,-0.00021883028542054,-2.9924119151284e-05,0.00063807738029492,-3.3024511268776e-05,0.0002442591259207,0.0013322112416121,1.6038827896118,70.751152038574,5.3717308044434
-0.011452168560773,-0.025639134858207,0.00030328348797125,3.1526041535417e-07,3.1297331449928e-06,2.4396636331429e-07,-2.1423024065288e-07,-8.2498941380312e-08,-1.5801430644206e-07,173,0,0,0,0,0,0,3.1526041535417e-07,3.1297331449928e-06,2.4396636331429e-07,-2.1423024065288e-07,0,-1.5801430644206e-07,2.0963255119122e-05,0.00024074870346098,1.8766643331869e-05,-1.9766795342959e-05,-6.3460724138701e-06,-1.5442492711357e-05,0.00044811683830657,49.153743743896,50,15.153665542603
-0.011534369598302,-0.027011147657353,0.00032089301361064,5.3781079137688e-07,2.9651418040873e-06,-1.0681172028148e-07,-2.4400065990671e-07,3.2475100276315e-08,8.6979991062249e-08,174,0,0,0,0,0,0,5.3781079137688e-07,2.9651418040873e-06,-1.0681172028148e-07,-2.4400065990671e-07,0,8.6979991062249e-08,6.3338721790477e-05,0.00022808783108364,-8.2162861754988e-06,3.1993793840465e-06,2.4980846366396e-06,2.8659429458582e-05,0.00044344676955506,46.863315582275,50,4.8038935661316
-0.030649228523494,-0.0499416364047,0.0012681372549067,2.4655374330366e-10,-9.0935079497558e-11,9.921100015837e-10,2.0987986697811e-10,2.226493704328e-10,-6.5213164171372e-10,175,0,0,0,0,0,0,2.4655374330366e-10,-9.0935079497558e-11,9.921100015837e-10,2.0987986697811e-10,0,-6.5213164171372e-10,7.6754015176692e-09,-6.9950061151968e-09,7.6316153967977e-08,4.8543341080121e-09,1.7126874648677e-08,-6.1454243483667e-08,1.8419884843719e-07,80.695411682129,110,14.518260002136
-0.030634264933544,-0.049950666178834,0.0012584054894685,-5.460331051675e-10,-1.1585687725523e-10,2.0449383723458e-09,3.3460517340881e-10,4.8243070964549e-10,-2.0331401059706e-10,176,0,0,0,0,0,0,-5.460331051675e-10,-1.1585687725523e-10,2.0449383723458e-09,3.3460517340881e-10,0,-2.0331401059706e-10,-6.5929966302639e-08,-8.9120674811715e-09,1.5730295171891e-07,1.8114397416926e-09,3.7110054588114e-08,-3.956695902799e-08,3.4622346832015e-07,75.323852539062,100,15.536978721619
-4.0142766984792e-05,-2.1029053545951e-06,1.1292830081105e-05,-2.5040789576009e-06,-2.1853913515403e-06,4.3673175473299e-07,-1.4418459574919e-07,1.8003741503814e-07,1.0499831752087e-06,177,0,0,0,0,0,0,-2.5040789576009e-06,-2.1853913515403e-06,4.3673175473299e-07,-1.4418459574919e-07,0,1.0499831752087e-06,-0.0002848299416313,-0.00016810702704156,3.3594750364076e-05,-0.00010329960610425,1.3849031926011e-05,-1.1440546799792e-05,0.00040578065593832,62.769870758057,10,15.657466888428
0,0,0,-7.2755477425102e-07,-1.4362903255197e-06,7.3296221740507e-08,-1.2623082811358e-07,2.1406704278529e-07,2.7180424009361e-07,178,0,0,0,0,0,0,-7.2755477425102e-07,-1.4362903255197e-06,7.3296221740507e-08,-1.2623082811358e-07,0,2.7180424009361e-07,-8.9541599688789e-05,-0.00011048387119382,5.6381709031159e-06,-4.3285911524371e-05,1.6466695598869e-05,-1.2667829354587e-05,0.00022294001631663,57.288436889648,0,15.40828704834
-0.030630588423606,-0.049965099001534,0.0012421770080586,8.6055059022684e-10,3.241299525214e-09,-5.0879586056865e-09,-3.607222518959e-09,1.013914353928e-09,1.3540499109397e-09,179,0,0,0,0,0,0,8.6055059022684e-10,3.241299525214e-09,-5.0879586056865e-09,-3.607222518959e-09,0,1.3540499109397e-09,-1.4147378701348e-08,2.4933073270877e-07,-3.9138143120666e-07,-3.578222332541e-07,7.7993411840619e-08,2.3814107507334e-08,1.343084269976e-06,67.231666564941,110,4.8570671081543
-0.00022074243155801,-2.4939264775558e-05,-1.9210428986896e-05,2.4456448120916e-08,-4.8157275422789e-07,-9.0679353595753e-07,-4.4018712177642e-06,-7.1457627271142e-07,4.5238257978309e-07,180,1.267680438515e-06,-3.9257662465277e-07,-6.8656102275752e-07,-3.1194191487318e-06,-2.012061192205e-07,1.8517387102168e-06,1.2921609207079e-06,-8.7409686224785e-07,-1.5933347922451e-06,-7.521292580589e-06,0,2.304099470021e-06,-0.00022456289955955,-3.704405801753e-05,-6.975334891981e-05,-0.00056504964308918,-5.4967405593186e-05,-0.00019164550481631,0.0010982272765095,78.188491821289,12.007626533508,6.9648661613464
-0.030651393621198,-0.049964435911304,0.0012420482049903,1.4202243986422e-09,-1.5628324897739e-09,4.4483626657636e-09,-2.8005964433111e-09,4.0728635305982e-09,1.9534368142798e-10,181,0,0,0,0,0,0,1.4202243986422e-09,-1.5628324897739e-09,4.4483626657636e-09,-2.8005964433111e-09,0,1.9534368142798e-10,4.0881009708577e-08,-1.2021788382876e-07,3.4218174352027e-07,-2.8379751659552e-07,3.132971946614e-07,-5.3340583923286e-08,1.3094569193864e-06,67.190170288086,110,15.631589889526
-0.03045020590965,-0.050003091420798,0.0010877815097832,-2.0402133845447e-06,-1.6622395679031e-06,1.3745851137289e-06,-4.6917088015058e-06,1.2845420795063e-06,1.8545009548786e-06,182,-1.9614222640767e-06,-4.4062949990488e-06,1.2141388882119e-06,-3.9277725753001e-06,2.0998813207805e-06,5.8891948393768e-06,-4.0014442742003e-06,-6.0685038407344e-06,2.5886260998095e-06,-8.619692076416e-06,0,7.7437151194445e-06,-0.00043832917753259,-0.00012786458214639,0.00010573731644068,-0.00064229036345267,9.8810929192791e-05,-0.00013873576680772,0.001109314311008,21.491558074951,97.932624816895,5.0985479354858
-0.030626742153249,-0.050126952286996,0.0011034959220695,2.772110381452e-06,-1.8190696507146e-07,9.1040501969725e-08,-5.0430526323823e-06,2.8509247594639e-07,-1.3875317276278e-07,183,3.027261580994e-06,-3.6836981723403e-06,3.0533015933517e-07,-5.762521593784e-06,1.4516669195995e-06,2.7352600127901e-06,5.7995980749563e-06,-3.865465262923e-06,3.9620673699101e-07,-1.0805811640354e-05,0,2.596518141705e-06,7.421837028324e-05,-1.3992843467036e-05,7.0031155361327e-06,-0.00052694801539632,2.1930190457415e-05,-0.0001496942108102,0.0011659763594947,17.138671875,100.88841247559,0
-2.5211846849138e-06,2.0425623316271e-08,-4.3471187832899e-08,-1.4445449972529e-07,-1.367582727441e-07,1.034752466305e-08,9.2675681464838e-09,5.2266929978673e-09,4.7531215628377e-08,184,0,0,0,0,0,0,-1.4445449972529e-07,-1.367582727441e-07,1.034752466305e-08,9.2675681464838e-09,0,4.7531215628377e-08,-1.6168945129855e-05,-1.0519867134162e-05,7.959634356192e-07,-4.34417067818e-06,4.0205330752825e-07,-1.4008131795728e-06,2.45988204581e-05,30.474998474121,10,8.7296028137207
0,0,0,-7.2076183300284e-08,-1.5116360642283e-07,1.781727192199e-08,5.2135732896236e-09,-1.160453220954e-08,1.8006197376588e-08,185,0,0,0,0,0,0,-7.2076183300284e-08,-1.5116360642283e-07,1.781727192199e-08,5.2135732896236e-09,0,1.8006197376588e-08,-8.3629609827569e-06,-1.1627969724833e-05,1.3705593786146e-06,-2.4175950912255e-06,-8.9265632381076e-07,-1.4335470845359e-06,2.3567755392667e-05,31.704624176025,0,8.0902690887451
0,0,0,-9.4204128469702e-08,-1.6767384647148e-07,-8.4602437671327e-09,4.0673663431608e-09,1.7021265538718e-08,3.9435874206426e-08,186,0,0,0,0,0,0,-9.4204128469702e-08,-1.6767384647148e-07,-8.4602437671327e-09,4.0673663431608e-09,0,3.9435874206426e-08,-1.0171522646907e-05,-1.2897988190114e-05,-6.5078798208713e-07,-2.6121768920712e-06,1.309328118363e-06,1.0847755894927e-07,2.6461759230356e-05,32.72225189209,0,14.50134563446
-0.027506732582604,-0.053523818414876,0.00090522023354315,-3.6364491712512e-06,1.5074639963614e-06,-8.803944152471e-07,3.7408958188262e-06,2.8081711807906e-07,2.8884440331688e-06,187,-1.153664477588e-05,5.3257737335502e-06,-1.6424642752557e-07,9.6548699738825e-06,2.470543564182e-06,1.8817748019978e-06,-1.5173994833932e-05,6.8309710421047e-06,-1.0449950558095e-06,1.3396673613094e-05,0,4.7702119015819e-06,-0.00010706008928409,0.00011595876895088,-6.77226473267e-05,0.00046042798687571,2.1601316775312e-05,0.00039485477259437,0.0012991998689762,0.21178336441517,82.074752807617,15.11883354187
-0.014545250960606,-0.0067965127102587,0.00013567612860884,3.1595083509462e-06,1.4441576079796e-06,-4.0000080419193e-07,-5.9201124111535e-06,1.3325595732093e-06,9.1794713373746e-07,188,1.9348370180522e-06,2.1700814501992e-06,-4.8306850952764e-07,-4.3877904459926e-06,1.3699740435408e-06,2.4529534279405e-06,5.0935676492726e-06,3.6149164658663e-06,-8.8323823245923e-07,-1.0307149403825e-05,0,3.370924828083e-06,0.00013673197354567,0.00011108904676766,-3.0769292630148e-05,-0.00056170039276969,0.00010250458255456,-3.5695812393457e-05,0.0010910348357422,77.55403137207,54.640083312988,0
-0.016705095203629,-0.0055410108008011,0.000252929501614,7.8998927155933e-06,-1.3287577993503e-06,3.2329940210138e-07,-3.5876605513346e-06,4.0429923927984e-07,1.0908374665872e-06,189,7.2406708149911e-06,-2.860910035935e-06,6.4025725313325e-07,-5.1460105950317e-06,3.465237286291e-07,-2.0946602199594e-06,1.5141675821646e-05,-4.1877277053849e-06,9.634949844465e-07,-8.7347856145729e-06,0,-1.0038205762276e-06,0.00091939961067136,-0.00010221213841156,2.4869184777029e-05,3.5741667061519e-05,3.1099941483064e-05,0.00039562612997858,0.0011180310175857,79.828193664551,58.188472747803,4.8037347793579
-0.017724760354085,-0.0095164678569154,0.00028722538612109,9.9629503825326e-06,-5.9420880328621e-07,-6.3484700896868e-07,-4.4850555802412e-06,3.2381015662489e-07,-1.2448449652454e-07,190,7.2319209990019e-06,-1.7349133441663e-07,-6.0158034275908e-07,-5.3082889487498e-06,2.8696895829524e-07,-1.9236320502522e-06,1.7194854467408e-05,-7.6615619917623e-07,-1.2364683322703e-06,-9.7933268704157e-06,0,-2.048117291225e-06,0.0010752313932198,-4.5708369483554e-05,-4.8834385305283e-05,-3.6153680839694e-05,2.490847358653e-05,0.00029927486406159,0.0010821508048974,73.460800170898,59.652667999268,4.2505903244019
-0.018124827920443,-0.030710308442509,0.00050680205811059,-1.5631463560171e-06,2.9859722512443e-06,7.4399420164236e-07,-3.8825328728368e-08,-1.9813206249666e-08,4.4198131002697e-07,191,0,0,0,0,0,0,-1.5631463560171e-06,2.9859722512443e-06,7.4399420164236e-07,-3.8825328728368e-08,0,4.4198131002697e-07,-0.0001871645490043,0.00022969017317264,5.7230323203258e-05,-6.9909085366709e-05,-1.5240927884359e-06,-3.2923959308606e-05,0.0005181720239438,41.300315856934,60,4.3326573371887
-3.7146625761236e-06,-4.565663127047e-07,-9.2540959974774e-07,-2.702179330529e-07,-3.0914744928708e-07,-2.2492017988527e-08,-2.9556694914253e-09,-3.1321947540948e-08,9.5288416022389e-08,192,0,0,0,0,0,0,-2.702179330529e-07,-3.0914744928708e-07,-2.2492017988527e-08,-2.9556694914253e-09,0,9.5288416022389e-08,-3.104860176495e-05,-2.3780573022083e-05,-1.7301552298867e-06,-1.0489966106375e-05,-2.4093805800729e-06,-2.9327287591585e-06,5.2546415660904e-05,40.625289916992,5.1197681427002,0
-0.030615133087615,-0.049952413469593,0.0012571610000066,5.998680496316e-10,3.7308479272555e-10,-1.6334429485262e-09,5.8269407697266e-11,1.2073853559549e-10,-9.2374936195857e-10,193,0,0,0,0,0,0,5.998680496316e-10,3.7308479272555e-10,-1.6334429485262e-09,5.8269407697266e-11,0,-9.2374936195857e-10,3.081993239687e-08,2.8698830209657e-08,-1.2564945757894e-07,-1.0841501598078e-08,9.2875796611919e-09,-8.6381406956219e-08,3.2170351418552e-07,74.672233581543,100,5.6287279129028
-0.010062078319776,-0.005307565364529,2.4854109230733e-05,-2.1359343138545e-06,1.4439603942087e-06,5.1711659911131e-07,-6.4413619679119e-06,-1.6087621372621e-07,1.1844743370373e-06,194,-2.2893497545713e-06,5.2294669136563e-06,3.5686773967542e-07,-5.6307787581033e-06,-1.9696284705058e-07,7.9201285126747e-06,-4.4276810455048e-06,6.6740076431574e-06,8.7403932178207e-07,-1.20697442295e-05,0,9.1046033302762e-06,-0.00059081159787703,0.00011107387647759,3.9778199931639e-05,-0.00092199834049683,-1.2375093363554e-05,-0.00033539554780842,0.0011866891805449,80.209190368652,47.033508300781,9.1529455184937
-0.0028255266220363,0.0031591122110723,-4.0136217719897e-05,-3.4253593690368e-06,2.0265244396805e-06,5.4929861726942e-07,7.1299443206985e-06,-8.5623988180669e-07,7.189617113943e-07,195,-1.5613001362577e-05,6.6029105761479e-06,-3.6548850288317e-07,2.077799930459e-05,-4.3919951869441e-06,-5.1649979420134e-06,-1.9039481425005e-05,8.6256749596238e-06,1.8418997645531e-07,2.7909178030115e-05,0,-4.446149942054e-06,-8.2845670572987e-06,0.00015588649536004,4.2253739789956e-05,0.00080366187061465,-6.5864606292822e-05,0.00031050936220664,0.0013632363366252,99.840782165527,28.228437423706,5.160756111145
-0.0032564561214965,0.00038374174945979,-0.00029717736427858,-3.9057874611172e-06,-4.2749420098225e-07,2.6171880136947e-06,-7.1765930804841e-06,1.4808165489081e-06,1.3728090355294e-06,196,3.1253975496909e-06,-9.7443476856632e-07,5.8597023379169e-06,-1.530532487971e-05,6.5495564380449e-07,1.2179927330019e-05,-7.803111367118e-07,-1.3993215221305e-06,8.4767983602924e-06,-2.2482007920176e-05,0,1.3552747550815e-05,-0.00086061277620548,-3.2884169306327e-05,0.00020132215489959,-0.0011122132084645,0.00011390896530063,-0.00045456689184804,0.0012752073027412,89.825317382812,30.266269683838,3.0090789794922
-0.0027440407558487,0.0017104979096837,-0.00014492361711404,-4.4613654704538e-06,1.4972936481786e-06,3.0826755230092e-06,5.4700939322511e-06,3.2985302309959e-06,-2.0461058155276e-06,197,-5.8258959354881e-06,3.198887443575e-06,4.8050557725096e-06,1.0458937946904e-05,4.3672913392699e-06,-4.6330420114159e-06,-1.0287896301933e-05,4.6949603655637e-06,7.8872962447374e-06,1.5929708974469e-05,0,-6.6791900262666e-06,-0.00040303065275012,0.00011517643447528,0.00023712888638532,0.00036092776284257,0.00025373309469199,-0.00021724144852502,0.00116335437466,95.097122192383,28.333683013916,0
-0.0018254924130189,0.0003439682044325,-0.00023975630207688,-5.8717911958815e-06,2.3658223862228e-06,1.87728228929e-06,-7.9952789280798e-07,-2.920618153899e-07,-1.8212117086192e-07,198,-1.0698642432087e-05,7.9028247105883e-06,4.6200223977567e-06,7.2753704802127e-06,-1.4081727922762e-06,3.423271951874e-06,-1.6571620292168e-05,1.0267301057567e-05,6.4973758720456e-06,6.4771312796899e-06,0,3.2410487529269e-06,-0.00084706703004193,0.00018198633740175,0.00014440632994539,-0.0004568929298055,-2.2466293491531e-05,-0.00040940010504042,0.0013547237371861,89.110809326172,24.863340377808,6.176390171051
-4.3721865246548e-06,2.4931918168073e-07,5.7525704675548e-07,-2.9740856036823e-07,-2.1318337500677e-07,-1.9374518379683e-09,2.3117130460349e-08,1.7336748986777e-08,8.6500176033281e-08,199,0,0,0,0,0,0,-2.9740856036823e-07,-2.1318337500677e-07,-1.9374518379683e-09,2.3117130460349e-08,0,8.6500176033281e-08,-3.3711692367245e-05,-1.6398721154367e-05,-1.4903475676679e-07,-9.0558699958156e-06,1.3335960759059e-06,-4.18025110559e-06,4.1459379598428e-05,36.456192016602,10,13.51049041748
-0.029398729947167,-0.051114328554453,0.00092873711550906,-3.5037288381888e-06,4.2403138539526e-06,-2.6350374029895e-06,4.2778210058983e-08,-9.3734221932591e-07,9.71482748805e-07,200,-5.9185585463155e-06,1.1768200576534e-05,-5.4094952591596e-06,1.8209959442572e-06,-2.4039261466603e-06,4.0975626020583e-06,-9.4239655118262e-06,1.6008064454123e-05,-8.0441074870309e-06,1.8654297807588e-06,0,5.0690678517425e-06,-0.00041314074982173,0.00032617798876558,-0.00020269518484535,-0.00014033251534113,-7.2103247640455e-05,-6.8893704668356e-05,0.0013066820886866,7.423647403717,89.036651611328,0
-0.017333066312949,-0.0075600503593134,0.00023748317925354,1.010842823295e-05,-2.2368673052033e-06,-4.4843024049316e-07,-3.2909028774504e-06,2.7728729003671e-07,-2.7778426288526e-06,201,9.3156369736871e-06,-2.7554014059665e-06,-2.9070727510066e-07,-4.7330403718652e-06,1.3891966118634e-07,-4.5825966018219e-06,1.9424894653376e-05,-4.9903846530499e-06,-7.3916508276788e-07,-8.0247687817849e-06,0,-7.3604431449441e-06,0.0010106300213797,-0.00017206671578487,-3.4494633884089e-05,-2.0087756343462e-05,2.1329791541285e-05,1.9378416625595e-05,0.0011048278031649,76.714965820312,59.110980987549,9.3299722671509
-0.017737565564302,-0.0096247602292012,0.00022881772533355,3.3074614106211e-06,1.5990425659729e-06,1.5689482291071e-07,-3.3672471084815e-06,-6.5256437003521e-07,1.1925500571996e-06,202,1.6373323986492e-06,1.2321903920989e-06,4.2223830719038e-08,-3.3182516989497e-06,-2.9016411563665e-07,1.6809193003005e-06,4.9443866456229e-06,2.831782753154e-06,1.9915336113965e-07,-6.6850837791754e-06,0,2.8734614928917e-06,0.00031977189847119,0.0001230032743056,1.2068832531593e-05,-0.00019366721838286,-5.0197259233478e-05,0.00015708640974645,0.0010647938655593,73.479644775391,59.729675292969,14.388612747192
-4.5247604399084e-06,9.340105129343e-08,-4.2546737295127e-07,-2.5717912087632e-07,-2.2550001230702e-07,-1.2021311565396e-08,1.4159278669096e-08,-6.724198143116e-09,6.7081909340065e-08,203,0,0,0,0,0,0,-2.5717912087632e-07,-2.2550001230702e-07,-1.2021311565396e-08,1.4159278669096e-08,0,6.7081909340065e-08,-2.9933274655899e-05,-1.7346154792848e-05,-9.2471627426126e-07,-9.0610900754824e-06,-5.1724601100892e-07,-4.9901184854078e-06,4.1701229198892e-05,37.036613464355,10,5.877236366272
-0.030634336980691,-0.049984797126769,0.0012199626641719,8.1070549206948e-09,5.4525635703659e-08,3.5401989580376e-09,-1.1269071399524e-07,-1.256673023695e-08,5.9998938697764e-08,204,0,0,0,0,0,0,8.1070549206948e-09,5.4525635703659e-08,3.5401989580376e-09,-1.1269071399524e-07,0,5.9998938697764e-08,-1.9485757970687e-06,4.1942796695122e-06,2.7232299677213e-07,-1.1240711867525e-05,-9.6667155668845e-07,2.0431075703981e-06,2.0101464670513e-05,55.82096862793,110,6.7987008094788
-0.030621837740379,-0.049983877054869,0.0012207997406724,-1.8652338027542e-09,-2.2359054359967e-08,3.9768553277444e-09,-5.7109316549556e-08,7.7034951282187e-09,8.5972575070986e-08,205,0,0,0,0,0,0,-1.8652338027542e-09,-2.2359054359967e-08,3.9768553277444e-09,-5.7109316549556e-08,0,8.5972575070986e-08,1.4140988258656e-06,-1.719927258459e-06,3.0591194828803e-07,-2.8354460008115e-06,5.9257654832452e-07,8.1708533546148e-06,1.2378648659627e-05,55.915176391602,100,9.0149259567261
-0.030625083634652,-0.049991638451497,0.0012117592919105,3.6497500259584e-09,-1.117954869897e-07,1.9162303590608e-08,-3.1349049223003e-07,7.9222148778456e-08,1.6242582319102e-07,206,0,0,0,0,0,0,3.6497500259584e-09,-1.117954869897e-07,1.9162303590608e-08,-3.1349049223003e-07,0,1.6242582319102e-07,-8.2239568641413e-06,-8.5996528453612e-06,1.4740233531237e-06,-3.2619360114602e-05,6.0940114444967e-06,3.9895872254785e-06,5.3206936746215e-05,51.09139251709,100,10.769869804382
-0.030614432657199,-0.04998941017044,0.0012126555859266,8.2216475089486e-08,-5.8271429619148e-08,6.8921855606937e-08,-2.5031481966738e-07,-6.6653382486426e-08,9.5177295470156e-08,207,0,0,0,0,0,0,8.2216475089486e-08,-5.8271429619148e-08,6.8921855606937e-08,-2.5031481966738e-07,0,9.5177295470156e-08,2.1173606352835e-06,-4.4824176630114e-06,5.3016812005336e-06,-2.3461969730629e-05,-5.1271832681866e-06,3.1143468184119e-06,4.368121111599e-05,52.170528411865,100,5.1035237312317
-6.6460389480282e-07,-6.5570864788289e-08,-1.0186211869583e-07,-3.5500692335347e-08,-5.4270421866854e-08,1.9234047101206e-10,2.8804513918022e-09,-5.8191815183844e-09,8.5531747839466e-09,208,0,0,0,0,0,0,-3.5500692335347e-08,-5.4270421866854e-08,1.9234047101206e-10,2.8804513918022e-09,0,8.5531747839466e-09,-4.119307073465e-06,-4.1746478359118e-06,1.4795420847081e-08,-1.1669114021459e-06,-4.4762934756803e-07,-7.3054806428862e-07,8.5893518809009e-06,18.529190063477,5.2849297523499,0
-9.2386756610964e-07,-5.6681152121337e-08,-2.316349644922e-07,-8.4558002652758e-08,-7.5868017128226e-08,6.7663893475595e-10,9.7882273838077e-09,-4.1835758752836e-09,2.8457249662147e-08,209,0,0,0,0,0,0,-8.4558002652758e-08,-7.5868017128226e-08,6.7663893475595e-10,9.7882273838077e-09,0,2.8457249662147e-08,-9.1763382198354e-06,-5.8360013175559e-06,5.2049148827381e-08,-1.9189359093304e-06,-3.2181352886797e-07,-4.8285727253503e-07,1.3888408704669e-05,24.048049926758,4.7541666030884,0
-1.0769119097176e-06,5.6711783386539e-08,-1.4527618514969e-07,-6.0628795936782e-08,-5.1738921355591e-08,-5.8772300374547e-10,8.2843911520782e-09,-3.8018298601436e-09,1.7546045917193e-08,210,0,0,0,0,0,0,-6.0628795936782e-08,-5.1738921355591e-08,-5.8772300374547e-10,8.2843911520782e-09,0,1.7546045917193e-08,-6.6713511605704e-06,-3.9799170273532e-06,-4.5209461826575e-08,-1.3703367691196e-06,-2.9244845078028e-07,-6.5790178718775e-07,9.6203252065383e-06,18.563575744629,10,6.0080790519714
0,0,0,-5.3527377961826e-08,-9.3746675874898e-08,4.2143337106926e-09,6.1101531675252e-09,-4.2319978884841e-09,1.7393932606616e-08,211,0,0,0,0,0,0,-5.3527377961826e-08,-9.3746675874898e-08,4.2143337106926e-09,6.1101531675252e-09,0,1.7393932606616e-08,-5.8496036232761e-06,-7.2112827596076e-06,3.2417951620712e-07,-1.2621012287107e-06,-3.2553829911416e-07,-3.9411819493447e-07,1.4950116780555e-05,25.019836425781,0,4.9749708175659
-0.030638622187317,-0.049939543945176,0.0012709356953747,7.039554233121e-10,6.4550127602815e-11,-1.6231846068632e-10,1.4027913638282e-10,8.4237978314661e-11,-8.7705351840342e-10,212,0,0,0,0,0,0,7.039554233121e-10,6.4550127602815e-11,-1.6231846068632e-10,1.4027913638282e-10,0,-8.7705351840342e-10,5.2257015713902e-08,4.9653944309858e-09,-1.2486035437409e-08,8.8973013347262e-09,6.4798444857431e-09,-6.9359056725754e-08,1.2752272021933e-07,82.141151428223,110,9.0241832733154
-0.030616719587973,-0.049943605061577,0.0012671405127686,3.2956035530565e-10,9.3549867700726e-11,-7.2413550636861e-10,2.0998114938695e-10,5.6885586119454e-11,-6.3699860957254e-10,213,0,0,0,0,0,0,3.2956035530565e-10,9.3549867700726e-11,-7.2413550636861e-10,2.0998114938695e-10,0,-6.3699860957254e-10,1.9728271280438e-08,7.1961436692866e-09,-5.5702731259124e-08,1.0529870825153e-08,4.3758143168811e-09,-5.4622418325577e-08,1.4331770270833e-07,79.841667175293,100,6.4510250091553
-0.018115657319743,-0.017181346968366,0.00036554645452063,1.0645165560496e-06,2.8994476195163e-06,1.2999545769273e-07,-8.9870634547776e-08,-2.798871502113e-07,3.0795397911027e-07,214,0,0,0,0,0,0,1.0645165560496e-06,2.8994476195163e-06,1.2999545769273e-07,-8.9870634547776e-08,0,3.0795397911027e-07,0.00015588203703913,0.00022303443227048,9.9996505917481e-06,6.7083022377793e-05,-2.1529780785484e-05,9.7684915736104e-05,0.00057865761461811,61.630729675293,60,4.8961172103882
-0.011597049275489,-0.014608388366526,0.00016271312115455,-2.9115887983279e-06,3.1966290003142e-06,-5.1717811824303e-07,1.3009231734098e-07,-4.4004825541267e-07,1.4544732533075e-06,215,-1.7110778160609e-07,1.2458005541894e-07,-3.0263485731452e-08,3.4905565903699e-08,2.6792249556097e-10,1.3620221570239e-07,-3.0827136291949e-06,3.3211952419804e-06,-5.4744074688104e-07,1.6501490845643e-07,0,1.5906754930591e-06,-0.00030052740146826,0.0002458945384857,-3.9782932172541e-05,-6.6551931032199e-05,-3.3849865800975e-05,3.5323525580609e-05,0.00073262811240619,65.503425598145,50,3.8529937267303
-0.030612937006135,-0.0499813324398,0.0012238403728378,9.9650303744193e-09,-5.099582719162e-09,1.9210334938057e-08,-4.5808868677142e-08,4.4636117088874e-09,2.7299386350605e-08,216,0,0,0,0,0,0,9.9650303744193e-09,-5.099582719162e-09,1.9210334938057e-08,-4.5808868677142e-08,0,2.7299386350605e-08,2.7359164694855e-07,-3.9227559378169e-07,1.4777180721582e-06,-4.0167082800946e-06,3.4335474683749e-07,1.6070036451167e-06,8.8465582896695e-06,57.598522186279,100,4.4487338066101
-0.022804607039714,-0.053456632474419,0.00074283139073258,-2.7584807753882e-06,-6.5424888844055e-06,8.449913791307e-07,1.1522007174468e-05,-5.3085415151507e-07,-3.4464594121943e-07,217,-1.8228485935236e-05,-2.4407439484477e-05,4.5267458429731e-06,3.1144353745181e-05,-1.5634607093208e-06,-1.2915867809945e-05,-2.0978995668208e-05,-3.0957545180539e-05,5.371614147332e-06,4.2658451610355e-05,0,-1.3260575484286e-05,0.00027351381292364,-0.0005032683757235,6.4999336856208e-05,0.0013720128859895,-4.0834934731929e-05,0.00045919341555201,0.0014656884676907,2.0744223594666,69.534599304199,15.091381072998
-0.014606237758818,-0.0017926351025007,0.00022493454903339,6.0060892512225e-06,-2.476840690658e-06,7.6749460291573e-07,-1.1849303138245e-06,5.4793766635435e-07,3.7283658640152e-07,218,7.3996227730209e-06,-5.8981601683132e-06,1.4856910125084e-06,-3.5713353498042e-06,1.1067374472748e-06,-3.8282874232167e-06,1.3408068505301e-05,-8.3728652593593e-06,2.2529666776914e-06,-4.7586441406775e-06,0,-3.4554288408236e-06,0.00076166045339017,-0.00019052620697369,5.9038046378133e-05,0.0002085051022327,4.2149051258027e-05,0.00032833332532701,0.0011821895063508,86.252067565918,55.051834106445,4.3628444671631
-0.010665983243873,-0.0065745065073372,-3.7395568407574e-05,-9.6933494690854e-07,1.9835351318658e-06,2.1800860166733e-08,-5.8775865142152e-06,7.0022068162293e-07,1.1113804935274e-06,219,-7.6118455777067e-07,4.2138360895845e-06,-4.5966498533271e-07,-4.2396852968043e-06,1.5109373378006e-06,5.000869854575e-06,-1.7322934340598e-06,6.1979137471825e-06,-4.3806923300142e-07,-1.0115525880186e-05,0,6.1122783466493e-06,-0.00040546082096968,0.00015257962552814,1.6769892435948e-06,-0.00078301863383943,5.386312935561e-05,-0.00024540578708999,0.0011525775014001,77.938095092773,48.215103149414,4.1993088722229
-0.03064667201716,-0.049922690367329,0.0012898491023862,3.6605194689642e-11,5.4115924089756e-12,8.5977265449809e-11,5.4889020421462e-11,1.1710952728465e-11,-1.2001829892754e-10,220,0,0,0,0,0,0,3.6605194689642e-11,5.4115924089756e-12,8.5977265449809e-11,5.4889020421462e-11,0,-1.2001829892754e-10,1.1701639867165e-09,4.1627633915197e-10,6.6136358038315e-09,2.5766121199334e-09,9.0084251757424e-10,-1.0877797060759e-08,2.0265368130038e-08,91.936447143555,110,13.194890975952
-0.030639956623376,-0.049915983122354,0.0012977543989214,3.3016006412047e-11,1.3000156151973e-12,1.443781323913e-11,3.2651446555357e-11,-9.7620232318274e-12,-9.110874938685e-11,221,0,0,0,0,0,0,3.3016006412047e-11,1.3000156151973e-12,1.443781323913e-11,3.2651446555357e-11,0,-9.110874938685e-11,1.0719256998049e-09,1.0000120116902e-10,1.1106010183946e-09,1.0438826339056e-09,-7.5092486398672e-10,-8.4761324385718e-09,1.1420522600894e-08,96.030059814453,110,9.7170848846436
-0.030632400039158,-0.049922727170308,0.0012903505538814,4.593998901015e-11,-1.9226900011456e-11,-7.0572822846005e-11,4.5617979948204e-11,-8.8806398250495e-12,-8.576298991028e-11,222,0,0,0,0,0,0,4.593998901015e-11,-1.9226900011456e-11,-7.0572822846005e-11,4.5617979948204e-11,0,-8.576298991028e-11,3.868171022785e-09,-1.4789923085736e-09,-5.4286786804619e-09,3.8434010949431e-09,-6.8312614038842e-10,-6.2628273557096e-09,1.7383909338141e-08,92.195533752441,110,5.8036003112793
-0.03030293066529,-0.050043302424145,0.0011953530481736,5.5913719789291e-07,-1.3445408499091e-07,2.0824952787978e-07,-5.2589953969964e-06,-1.2742810162731e-06,-4.3532457774322e-07,223,2.2955523605981e-06,-7.0142366927296e-07,1.0391963621753e-07,-3.6661682077117e-06,-1.3797192967793e-06,1.3706158471136e-06,2.8547475889343e-06,-8.3574846629059e-07,3.1222258417991e-07,-8.9252292655002e-06,0,9.352988997192e-07,-0.00025324999113401,-1.0342621922378e-05,1.6019194452291e-05,-0.00070079865227934,-9.8021616636393e-05,-0.00032974705079833,0.0011204426333484,19.178337097168,96.531723022461,16.177642822266
-0.030671388424439,-0.050334825329318,0.0010457128583928,7.3697991661922e-06,4.8794063977072e-06,1.2836472078601e-06,-6.2664175577382e-07,-1.0045228700063e-06,-2.3938027312568e-06,224,7.8140202624204e-06,7.3440106271486e-06,1.510145826267e-06,-1.7136656093703e-06,9.2494210793594e-08,-6.1003546530501e-06,1.5183487108539e-05,1.2223595850269e-05,2.7938447669301e-06,-2.3399939662261e-06,0,-8.494138463151e-06,0.00081783193658179,0.00037533895366979,9.8742092912312e-05,0.00020272109643056,-7.7270990000485e-05,6.6785636778028e-05,0.0011333158763787,15.205967903137,101.12879180908,20
-0.030644128885753,-0.05,0.0011917240952829,5.3342741104234e-07,-1.338744835825e-06,3.8143663486361e-08,-6.8939982728946e-07,1.7821256034821e-08,2.4016076555434e-07,225,0,0,0,0,0,0,5.3342741104234e-07,-1.338744835825e-06,3.8143663486361e-08,-6.8939982728946e-07,0,2.4016076555434e-07,4.5889897924827e-05,-0.00010298037198654,2.9341279604893e-06,-4.8173735793004e-05,1.3708658488324e-06,2.3330925194981e-05,0.00022094052734747,41.451709747314,110,9.6268863677979
-0.019868108348725,-0.052466973143565,0.00072320211944706,6.686015979008e-07,-7.1157666326461e-06,1.019459377664e-06,4.1021404589412e-06,-1.6126762737532e-07,-7.6768701549916e-07,226,-2.1121736058382e-06,-2.3537269847015e-05,4.4246513482741e-06,1.1113321219626e-05,-1.6405323876372e-06,-9.0011476137882e-06,-1.435077913068e-06,-3.0655444977045e-05,5.4442181263397e-06,1.5207252724531e-05,0,-9.7691197701205e-06,0.00028237637530061,-0.0005473666640497,7.8419952127996e-05,0.0005464947492268,-1.2405202105794e-05,0.00017189263580831,0.001420677352923,5.1415820121765,63.432167053223,12.569589614868
-0.0042020192058809,0.00011927528899254,2.118544176345e-05,-5.9167114405464e-06,-1.467021131523e-06,-6.1534291193573e-07,-4.5635602272494e-06,-7.9222712755536e-07,1.7118705899522e-06,227,-6.2414527978144e-06,-1.8802055502749e-06,-1.5540121749678e-06,-5.5833492201553e-06,-4.2898246813489e-06,1.182480201797e-05,-1.2158124667404e-05,-3.3468867671823e-06,-2.1684194954163e-06,-1.014680901322e-05,0,1.353653260278e-05,-0.00096100094222532,-0.00011284777934792,-4.7334070148902e-05,-0.00085691238735632,-6.0940548273489e-05,-0.00037418693987927,0.001345181558845,89.534034729004,33.470409393311,13.814914703369
-0.011528156352577,-0.022797090850126,0.00027133307433587,-2.7137296102103e-07,2.9251096801298e-06,-2.8206065377487e-07,2.00622979371e-08,7.3569772970616e-08,9.066431636785e-08,228,0,0,0,0,0,0,-2.7137296102103e-07,2.9251096801298e-06,-2.8206065377487e-07,2.00622979371e-08,0,9.066431636785e-08,-3.0142901619853e-05,0.00022500843693306,-2.1696973367297e-05,-7.7248047769201e-06,5.659213305432e-06,-2.293880282247e-06,0.00041923366292342,53.182781219482,50,4.8908171653748
-0.014700443392712,-0.013764579388819,0.00023187574590119,-3.0523430224089e-07,4.0132730675113e-06,-9.7006294065657e-07,-8.2508159997415e-07,2.1357362359384e-07,-2.8081863496501e-08,229,-2.083071803373e-07,6.799595480876e-07,-3.0041370025009e-07,-3.1479935825472e-08,1.0956350532984e-07,2.3978711616277e-07,-5.1363897754534e-07,4.6932135597704e-06,-1.2704789604614e-06,-8.5646463139981e-07,0,2.117058432336e-07,-9.031020204035e-05,0.00030871331288549,-7.4620226204352e-05,-0.00013029845571214,1.6428740276449e-05,-6.8990783675397e-05,0.00084893483271753,66.671455383301,54.732345581055,0
0,0,0,-8.32929851296e-08,-1.7951651985907e-07,2.3321064989808e-09,-9.4867282862752e-10,-1.2141827500235e-08,2.1189854096627e-08,230,0,0,0,0,0,0,-8.32929851296e-08,-1.7951651985907e-07,2.3321064989808e-09,-9.4867282862752e-10,0,2.1189854096627e-08,-1.0044756771215e-05,-1.3808963066082e-05,1.7939280761391e-07,-3.7105789019098e-06,-9.3398673078728e-07,-2.0076152922748e-06,2.7074353164961e-05,31.423707962036,0,3.6393961906433
-2.9193876506316e-06,-1.84039454352e-07,-5.0254355653282e-07,-1.774189390186e-07,-1.916098136076e-07,-1.5724925260662e-08,1.4741856408493e-08,-1.2719713199958e-08,4.8630287816577e-08,231,0,0,0,0,0,0,-1.774189390186e-07,-1.916098136076e-07,-1.5724925260662e-08,1.4741856408493e-08,0,4.8630287816577e-08,-2.0227233470288e-05,-1.4739216431354e-05,-1.2096096354356e-06,-5.4456338220502e-06,-9.7843947691984e-07,-2.8388314060437e-06,3.286387067694e-05,35.825996398926,6.0237021446228,0
-2.8663646241282e-06,9.3390586244976e-08,-3.2573535625202e-07,-1.6342552835869e-07,-1.2562871753221e-07,-4.7669384891715e-09,1.5660387372079e-08,-5.7985615836676e-09,4.0290668348592e-08,232,0,0,0,0,0,0,-1.6342552835869e-07,-1.2562871753221e-07,-4.7669384891715e-09,1.5660387372079e-08,0,4.0290668348592e-08,-1.8771644833632e-05,-9.6637475024777e-06,-3.6668757609012e-07,-4.9958051620336e-06,-4.4604319874367e-07,-3.1011681638403e-06,2.4191773152609e-05,30.780382156372,10,3.8425316810608
-0.030642339517674,-0.049976085593371,0.0012294323987362,5.6999641550744e-09,4.7738065284775e-09,-5.0629154926054e-09,-2.9113389549834e-08,1.5388049720497e-08,2.9589744904153e-08,233,0,0,0,0,0,0,5.6999641550744e-09,4.7738065284775e-09,-5.0629154926054e-09,-2.9113389549834e-08,0,2.9589744904153e-08,7.9478490670151e-07,3.6721588680596e-07,-3.8945503789272e-07,-1.8831653782914e-06,1.1836961323459e-06,2.6324603489383e-06,6.0794055167226e-06,60.611190795898,110,10.844524383545
-0.030646294687221,-0.049984386055589,0.0012201817338534,1.531385274309e-08,3.817280588011e-08,-1.2180632434193e-08,-9.345535312656e-08,4.7387082030723e-08,5.8828576027985e-08,234,0,0,0,0,0,0,1.531385274309e-08,3.817280588011e-08,-1.2180632434193e-08,-9.345535312656e-08,0,5.8828576027985e-08,6.378149819043e-08,2.9363696830854e-06,-9.3697172570716e-07,-8.3030804917827e-06,3.6451601562095e-06,3.4110679047208e-06,1.7751688573237e-05,55.692283630371,110,12.858748435974
-0.029751833014274,-0.052248433900575,0.0011982354619842,1.4862600484994e-06,9.0435799255959e-06,-1.4810094569391e-06,8.0617076645237e-06,4.5857254230168e-07,2.571602695872e-06,235,-8.5402880175774e-06,3.1701850345672e-05,-5.9852058221328e-06,1.6302794409951e-05,1.6814718567442e-06,-7.7625063923732e-06,-7.0586661748101e-06,4.0743552581547e-05,-7.4659834884132e-06,2.4369067485526e-05,0,-5.1908309018203e-06,0.00081353368116698,0.0006956599942766,-0.00011392380437993,0.0013193373439381,3.5274810946283e-05,0.00089702157711872,0.0014482529951366,2.8846566677094,92.58952331543,4.3437242507935
-0.030202756181421,-0.050803481200969,0.0010387727210396,3.964210590444e-07,4.8700074156771e-06,7.8269160704152e-07,-1.8247410497689e-06,1.9568746099199e-06,1.3456403217105e-06,236,-5.532723723494e-07,1.3109066058588e-05,1.0976290132693e-06,-2.76329133807e-06,4.8300547341734e-06,3.3165637104194e-06,-1.5853462518164e-07,1.7979072985064e-05,1.8802801454553e-06,-4.5864219381708e-06,0,4.6622768943385e-06,2.5723946714148e-05,0.00037461595505209,6.0207046695502e-05,-0.00014513467704072,0.00015052881614768,9.8740813073082e-05,0.00130313587161,8.8584022521973,94.278831481934,0
-0.030494368457216,-0.05137463006421,0.0012795404479989,4.7671269344166e-06,6.109609244725e-06,-9.0507525614901e-07,1.7598713156806e-06,1.0168691727274e-06,-1.8289450623434e-07,237,6.0723917817881e-06,1.8132889312721e-05,-3.0285650572084e-06,2.1045033757646e-06,2.2290253174117e-06,-8.1768951575527e-06,1.0837530818861e-05,2.4242587957272e-05,-3.9336809327142e-06,3.866334447458e-06,0,-8.3597615224561e-06,0.00073270805710105,0.00046996994190193,-6.9621173549924e-05,0.00050138070181366,7.8220705594418e-05,0.00035193717705098,0.0013428456791423,6.1566967964172,98.026748657227,5.1392974853516
-0.015652853847369,-0.0034311997706633,0.00015809232569981,5.4051554413043e-06,-1.9185656162207e-06,8.3155023114957e-08,-3.1275410503743e-06,1.4041191940484e-08,-9.2884732363468e-07,238,6.8588894074512e-06,-3.5090641243184e-06,-2.0444744876728e-08,-3.5482110611307e-06,-3.8383664882653e-08,-3.3106783463204e-06,1.2265436036925e-05,-5.4258111078716e-06,6.2680613321754e-08,-6.6771310642574e-06,0,-4.239537905372e-06,0.00049359467244429,-0.00014758197047851,6.396540239612e-06,-0.00016276659614637,1.0800916877295e-06,6.3636905259086e-06,0.0011512436365742,83.52320098877,56.660820007324,9.5337533950806
-7.5428752145245e-05,-1.2849980843478e-05,2.0842108738136e-05,-3.9315494411612e-06,-4.2081294745249e-06,1.1182491274086e-06,-1.424050496961e-06,6.1149450747441e-07,2.070231502373e-06,239,-7.7713474388622e-07,-7.9785540008064e-07,1.4347712634418e-07,7.2223306422648e-08,1.2902745568469e-07,7.0491143746357e-07,-4.7086837761763e-06,-5.0059850920935e-06,1.2617251181484e-06,-1.3518277340179e-06,0,2.775143074445e-06,-0.00049196736676717,-0.00032370226727115,8.6019163646813e-05,-0.00029908283259792,4.7038039036493e-05,-3.029190957223e-05,0.00076031756418642,69.430252075195,10.057589530945,15.335007667542
-6.0189504459609e-07,-4.5701564687446e-09,6.0396326634732e-08,-2.4481235116822e-08,-2.6672937581978e-08,2.8411602207769e-09,-2.9477681801255e-10,1.4971293557325e-09,8.8538881076332e-09,240,0,0,0,0,0,0,-2.4481235116822e-08,-2.6672937581978e-08,2.8411602207769e-09,-2.9477681801255e-10,0,8.8538881076332e-09,-2.8017559990171e-06,-2.0517644293829e-06,2.1855078621361e-07,-9.4125920680103e-07,1.1516379659481e-07,-2.3751575098213e-07,4.3732684895188e-06,9.620623588562,10,15.058353424072
-7.4016019204835e-07,-3.0090437651118e-08,1.5806321623701e-08,-2.3494602942828e-08,-3.8211468463601e-08,-9.7624937607262e-10,-5.1837487745381e-10,-1.3435376654231e-10,8.6754283963087e-09,241,0,0,0,0,0,0,-2.3494602942828e-08,-3.8211468463601e-08,-9.7624937607262e-10,-5.1837487745381e-10,0,8.6754283963087e-09,-2.6921357700621e-06,-2.9393437279693e-06,-7.509610585174e-08,-9.247336111872e-07,-1.0334905118639e-08,-2.1751797474392e-07,5.9001371778914e-06,13.452136039734,10,10.433934211731
-1.278739560853e-05,1.6935844455763e-07,1.5602825112413e-06,-6.7465978674768e-07,-5.7515922563108e-07,2.4194778539408e-08,4.7740243580201e-08,3.9880492582824e-08,2.0127229175255e-07,242,0,0,0,0,0,0,-6.7465978674768e-07,-5.7515922563108e-07,2.4194778539408e-08,4.7740243580201e-08,0,2.0127229175255e-07,-7.6453478869914e-05,-4.4243017356237e-05,1.8611368107237e-06,-2.0884245767769e-05,3.0677301986787e-06,-9.0740882160495e-06,0.0001062133560908,49.252212524414,10,14.349401473999
0,0,0,-3.6924052994907e-08,-5.6898377598781e-08,6.8813214179685e-10,5.8605172673254e-09,-1.3021088109653e-09,1.1008931662281e-08,243,0,0,0,0,0,0,-3.6924052994907e-08,-5.6898377598781e-08,6.8813214179685e-10,5.8605172673254e-09,0,1.1008931662281e-08,-3.9973081572217e-06,-4.3767982768293e-06,5.2933241676681e-08,-7.061873678192e-07,-1.001622162281e-07,-3.1015549128413e-07,9.227790573e-06,20.463771820068,0,9.6311330795288
-1.767104627385e-06,1.5330328011959e-07,-8.1865020421043e-08,-1.241061258912e-07,-8.0466983713853e-08,-1.3259049829606e-09,1.5928824066407e-08,1.084483811585e-09,2.9830590886354e-08,244,0,0,0,0,0,0,-1.241061258912e-07,-8.0466983713853e-08,-1.3259049829606e-09,1.5928824066407e-08,0,2.9830590886354e-08,-1.4066627622694e-05,-6.1897679779887e-06,-1.0199269099697e-07,-3.2947083951861e-06,8.3421831660386e-08,-2.2253417167286e-06,1.6599899224012e-05,25.304443359375,10,4.6924648284912
-1.5779131626582e-06,1.1719910880236e-07,2.9546903415152e-08,-7.5636777265678e-08,-7.8317197709318e-08,5.465525152303e-09,8.687670045343e-09,-9.421202420536e-10,2.4271874154094e-08,245,0,0,0,0,0,0,-7.5636777265678e-08,-7.8317197709318e-08,5.465525152303e-09,8.687670045343e-09,0,2.4271874154094e-08,-8.2803616973353e-06,-6.0243998237937e-06,4.2042501171561e-07,-1.7938657503337e-06,-7.2470787850277e-08,-5.9508081889123e-07,1.3522830123976e-05,24.393493652344,10,10.221274375916
-0.030629792213918,-0.049945886695854,0.0012640457356261,1.623972538494e-10,3.9938920458276e-11,-1.5699853551417e-09,8.0004171654366e-11,-1.8735261603205e-10,-7.2150400387744e-10,246,0,0,0,0,0,0,1.623972538494e-10,3.9938920458276e-11,-1.5699853551417e-09,8.0004171654366e-11,0,-7.2150400387744e-10,-1.5148436917758e-08,3.0722246506367e-09,-1.2076810424167e-07,-2.1486366317376e-08,-1.4411739694773e-08,-8.3140841358284e-08,2.7618292552556e-07,78.568786621094,110,4.4519290924072
-0.030615868490771,-0.049982061451318,0.0011696901533383,9.8290977052689e-07,-2.8506955912269e-06,2.554734211657e-07,-1.9035093083254e-06,3.70903929407e-07,4.4748610471897e-07,247,0,0,0,0,0,0,9.8290977052689e-07,-2.8506955912269e-06,2.554734211657e-07,-1.9035093083254e-06,0,4.4748610471897e-07,4.8313438132093e-05,-0.00021928427624823,1.9651801628131e-05,-0.0001737187987027,2.8531071492846e-05,7.1270023007148e-06,0.00051951192268523,33.916397094727,104.82203674316,0
0,0,0,-1.4983246878503e-06,-2.78814146055e-06,3.1209251264448e-07,-6.3637747524012e-07,4.5423168843728e-07,7.2150466261523e-07,248,0,0,0,0,0,0,-1.4983246878503e-06,-2.78814146055e-06,3.1209251264448e-07,-6.3637747524012e-07,0,7.2150466261523e-07,-0.00019678637024666,-0.00021447242004231,2.4007116357267e-05,-0.00013048273850742,3.494089911056e-05,-2.6030266364702e-05,0.00044427635659569,64.624938964844,6.8985391408205e-05,15.605842590332
-0.014715699001136,-0.0021988153516313,2.8070192882193e-05,6.1577535326856e-06,-2.4700683196824e-06,-2.4958201827911e-07,-2.0119204776698e-06,-2.5654357924789e-07,9.4801797633922e-07,249,8.2194168942691e-06,-6.4318839620332e-06,-1.1864144688394e-06,-5.3484763334991e-06,-4.0263086205517e-07,-2.8709405607701e-06,1.4379878171111e-05,-8.8993593441898e-06,-1.4360380882768e-06,-7.3630938309652e-06,0,-1.9229333087905e-06,0.00076754936970783,-0.00019000525536018,-1.9198616790701e-05,0.0001391129073728,-1.9734121480607e-05,0.00036680048075811,0.0012077369465011,85.829284667969,55.335708618164,14.553263664246
-0.00097785536550079,0.00024706042627224,-8.2842049099197e-05,-4.3303155897047e-06,2.5254944529418e-06,3.1726506720712e-07,-5.5309705243059e-06,-5.9451354485344e-08,9.8306058599473e-07,250,-3.4640430394245e-06,6.302845228918e-06,4.9884403963631e-07,-4.4287573539332e-06,-4.7693627164348e-07,7.8928003933577e-06,-7.7949218202762e-06,8.8284065731466e-06,8.161189052951e-07,-9.9590660755291e-06,0,8.8757623677895e-06,-0.00084530651813204,0.00019426880407244,2.4405005169778e-05,-0.00093766459002444,-4.5731811142572e-06,-0.00043658527384747,0.0012859422346976,86.953605651855,19.707141876221,9.541955947876
-8.9851534020565e-05,0.00092020354676629,-3.7050666995427e-05,5.3725887829379e-07,2.6096535038396e-06,2.7337902899575e-07,-2.5147728579489e-06,-8.7164628100155e-08,1.4805296988663e-06,251,-6.2080657653459e-07,4.2950404562792e-06,3.4580018824244e-07,-2.1305620869066e-06,4.7702145610022e-07,2.7513686634411e-06,-8.3877085104754e-08,6.9046420230829e-06,6.1916345547916e-07,-4.6449892891156e-06,0,4.2318820934316e-06,1.2655435977095e-05,0.00020074257721843,2.1029156076596e-05,-0.00022211623604157,-6.7049713923196e-06,8.5214729867292e-05,0.001180225073667,92.388557434082,10.179964065552,12.033311843872
-0.00054130968653124,0.00011612108934117,-0.00014422312397643,-1.4411651529966e-06,-6.8014214482496e-07,-4.6410349926529e-07,-8.694345149732e-06,-1.1544241988228e-06,1.2763612579376e-06,252,1.8917439290156e-06,-2.64703995856e-06,-5.6585168423033e-07,-9.7702330359776e-06,-1.5308972994026e-06,7.878489106962e-06,4.5075917809166e-07,-3.326903212455e-06,-1.0298993278236e-06,-1.8464739454019e-05,0,9.1548312311363e-06,-0.00062196361050691,-5.2318626524997e-05,-3.5700269174253e-05,-0.0011799005333327,-8.880186144791e-05,-0.00041292311735813,0.0011994897244535,83.901329040527,15.836024284363,5.7303762435913
-0.00010127804263032,0.001059322260572,-1.0453754644946e-05,2.239693179825e-06,4.8512088937368e-06,6.6924410667382e-07,-9.464438557635e-07,-5.9321126293956e-07,2.1405800683147e-06,253,1.796135403288e-06,8.9877169625344e-06,8.5072771422374e-07,-2.6950272433657e-06,-9.220595646181e-07,8.9889184007775e-07,4.0352776507323e-06,1.3838989409431e-05,1.5199662110363e-06,-3.6409186743301e-06,0,3.039470415974e-06,0.00037038963262363,0.00037316991490283,5.1480315897986e-05,0.00012530216834759,-4.5631635610735e-05,0.00036276554712283,0.0011884278597877,93.27611541748,11.228699684143,5.6329445838928
-0.014657247928912,-0.010107446374556,0.00020781325303868,6.9727435312696e-06,1.7708725144202e-06,-8.8696939173057e-07,-3.7308155604924e-06,9.9569749455621e-07,-1.3957601769181e-06,254,4.5913555796019e-06,1.1908985745172e-06,-3.0896309559277e-07,-3.4561652504053e-06,4.5155071780825e-07,-1.1351903291966e-06,1.1563801748924e-05,2.9627479038049e-06,-1.1959773245862e-06,-7.1866856502981e-06,0,-2.5309483047664e-06,0.00064287456743568,0.00013622096264771,-6.8228414748505e-05,-0.00018047613193063,7.6592114965862e-05,-8.5648704029545e-07,0.001051837011434,72.279792785645,54.718467712402,0
-0.029905987859506,-0.050150328585517,0.00090388417567893,-1.2940298507647e-06,-6.6719084771069e-07,1.4700724028207e-07,-7.4406190082495e-06,1.974082406241e-06,-6.2192475712386e-07,255,2.6551938806759e-06,-4.0495898946518e-06,1.9899222365275e-07,-9.8068677091722e-06,4.0096819844728e-06,7.1516738284963e-06,1.3613585813579e-06,-4.7163555583269e-06,3.4576558063601e-07,-1.7247794035798e-05,0,6.5298618383022e-06,-0.00063934308175909,-5.1322372900823e-05,1.1308249252467e-05,-0.0011121576323349,0.00015185249278777,-0.00058764268994057,0.0013007015369686,15.324272155762,93.298606872559,4.7475700378418
-0.0035984223925825,0.00020802511574796,-0.000118104238655,-6.0624862213772e-06,-4.096673507222e-07,-8.9616586570812e-07,-3.9438755685538e-06,-6.5044277931319e-07,8.4174664065936e-07,256,-7.5136622841132e-06,-7.1221637027214e-07,-2.0519491077447e-06,-1.1276472415484e-06,-1.5926929718412e-06,8.6413095256616e-06,-1.357600481996e-05,-1.12236983605e-06,-2.9480081998389e-06,-5.0714700580923e-06,0,9.4828597287808e-06,-0.00099507289102546,-3.1512873132477e-05,-6.8935835823701e-05,-0.00083210284080827,-5.0034059947169e-05,-0.00046397805548418,0.0013550897230694,89.741325378418,31.413417816162,8.0337390899658
-0.018022429184115,-0.036258091172928,0.00057757436753846,-1.7847157633816e-06,3.6300425410814e-06,-7.0875511092988e-08,-1.1164545914389e-06,-2.5472609672896e-07,1.1870306019678e-06,257,9.6101949990779e-10,2.5450273747357e-07,-2.3481346938214e-08,-6.8975588004598e-08,-1.632184029336e-08,6.801456850469e-08,-1.7837873211974e-06,3.8845589765508e-06,-9.4355154933609e-08,-1.185397551989e-06,0,1.2550451203336e-06,-0.00023617850600163,0.00027923404162165,-5.4519623917683e-06,-0.00018477380046758,-1.9594315132997e-05,-7.5826317439877e-06,0.0008651919693209,33.020175933838,60.006740570068,10.181948661804
-0.023481661848448,-0.051580635657343,0.00088420131888275,-2.1488296936879e-06,-5.7310861743816e-06,5.5202128270979e-08,3.6467396735852e-06,1.1980383731399e-06,-1.2087124273893e-06,258,-7.4593100960217e-06,-1.5969814758119e-05,6.8457360812299e-07,1.1754103564715e-05,2.2660021829497e-06,-4.2947934686932e-06,-9.6032626978046e-06,-2.1703636749479e-05,7.392031174856e-07,1.5395966609291e-05,0,-5.5035063589788e-06,-0.000148610117639,-0.00044085278264474,4.2463175593061e-06,0.00029720291061278,9.2156797933839e-05,-7.62934048468e-05,0.0013199498833381,7.1547145843506,70.400352478027,20
-0.021003317524658,-0.050850912108709,0.00077611910815732,2.8315407560736e-06,-7.9974325062006e-06,1.9971552410383e-06,4.0227714293682e-06,2.0052164569626e-06,-2.9178336320496e-06,259,4.0675061952024e-06,-2.132115294279e-05,5.3571942499987e-06,6.9364860873972e-06,4.6201948337146e-06,-1.10039922826e-05,6.9060631629282e-06,-2.9319099781455e-05,7.353552364789e-06,1.0952063284542e-05,0,-1.3921647894078e-05,0.00044491535931674,-0.00061518711586158,0.00015362732623371,0.00053654848803171,0.00015424741976635,2.6557909995731e-06,0.0012997097528896,8.9322547912598,65.478271484375,20
-0.022578407353183,-0.048589806856538,0.0010586999945377,-2.8152617327304e-06,-2.22627940681e-06,8.8773096329866e-07,-6.1345979270001e-06,2.2493878950091e-06,4.3714319554157e-07,260,-6.9332946380629e-07,-1.4164814832812e-06,2.822753700369e-06,-9.1420904753844e-06,4.9034033958766e-06,9.8354199391907e-06,-3.5092220297666e-06,-3.641184252996e-06,3.7097376380727e-06,-1.5276145822682e-05,0,1.0272651388259e-05,-0.00070767685237477,-0.00017125226206231,6.828699717682e-05,-0.00096301040578014,0.00017302983807763,-0.00045749185789232,0.0013013205007669,13.681297302246,68.719841003418,16.937461853027
-0.0053101329475385,-0.00041086144869946,-0.0002633126711571,-4.7228821472225e-06,-7.2087785673565e-07,-2.0677580925267e-07,-6.1146688622735e-06,1.3357383825714e-06,-7.5702201672782e-07,261,5.8803664203284e-07,-8.3315340600689e-07,8.0183648180815e-07,-8.5480707712979e-06,2.6726829811048e-06,7.9600341292651e-06,-4.1349943832708e-06,-1.5522421366244e-06,5.9467590652129e-07,-1.4662657572227e-05,0,7.2030789292737e-06,-0.0010322163012993,-5.5452142825819e-05,-1.5905831480974e-05,-0.0011392768178416,0.00010274910635165,-0.00072715013741505,0.0012491653214551,88.752784729004,36.496520996094,4.0979714393616
-0.018064868331141,-0.027084699790655,0.00047471768348194,-4.9441572857516e-07,3.1439540268634e-06,-4.6324173245181e-07,-3.4400838778251e-08,3.0286838452727e-08,6.5881423574093e-09,262,0,0,0,0,0,0,-4.9441572857516e-07,3.1439540268634e-06,-4.6324173245181e-07,-3.4400838778251e-08,0,6.5881423574093e-09,-6.8160542101705e-05,0.00024184261745103,-3.563397941937e-05,-3.2774781348096e-05,2.3297568040559e-06,-2.96217827992e-05,0.00047521094461011,46.991481781006,60,15.016275405884
-0.030643213230663,-0.049990217029035,0.001129747582528,4.2129071123436e-06,-7.8028367815394e-07,1.4093583315897e-06,-3.6903498262831e-06,2.4666051861399e-07,3.600877321376e-07,263,2.1944585797211e-06,1.05791996695e-07,1.0580579152104e-06,-2.0362841682417e-06,3.2295649325211e-07,-1.5817441147941e-07,6.4073485759969e-06,-6.7446831856795e-07,2.467408020661e-06,-5.7266213376206e-06,0,2.0191777982181e-07,0.00037499160584555,-6.0021821396457e-05,0.00010841217935306,-0.00023295123558727,1.897388604723e-05,7.8620884291244e-05,0.0010409770220269,21.836000442505,103.24091339111,0
-1.7630069653445e-06,-2.0860962233123e-07,5.9575809130336e-07,-1.6532292237018e-07,-1.4571804454962e-07,2.0497324916966e-08,1.0896039520527e-08,1.3535290981612e-08,4.9975465910148e-08,264,0,0,0,0,0,0,-1.6532292237018e-07,-1.4571804454962e-07,2.0497324916966e-08,1.0896039520527e-08,0,4.9975465910148e-08,-1.8743191159601e-05,-1.120908034997e-05,1.5767173013051e-06,-5.187886398777e-06,1.0411762293548e-06,-2.1817766764985e-06,2.7032311572183e-05,32.022090911865,5.1063590049744,20
-0.01032929282879,-0.0016802087768996,6.7505447263389e-05,2.114609236224e-06,-3.2083575699288e-06,3.6962794113562e-07,-1.8708752263813e-06,-1.3512542771282e-06,-1.4934509549676e-06,265,4.2920057439013e-06,-9.6838439168722e-06,2.3911965755892e-07,-1.1163267927813e-06,-2.9941247465017e-06,-3.1756789511199e-06,6.409528530755e-06,-1.2891194298887e-05,6.0911293041024e-07,-2.9900694254844e-06,0,-4.6691760503956e-06,9.0563194413866e-05,-0.00024679673614837,2.8432918548894e-05,-0.00021601253347885,-0.00010394263670217,-0.00018697989721626,0.0012529008442333,86.597564697266,47.771186828613,20
-0.0041175135996745,0.0015997485960765,-0.00018513001551608,-2.7303004889659e-06,-4.0595467226432e-07,-7.661662247412e-08,4.4681403077363e-06,9.9102888577495e-07,8.7103177596535e-07,266,-9.9500269184612e-06,-9.599015708148e-07,8.5341640365245e-07,1.0165761761652e-05,2.1009097477916e-06,-2.157348431908e-07,-1.2680099548458e-05,-1.3681316029973e-06,7.7647437281099e-07,1.4633687190737e-05,0,6.5528395245732e-07,-5.9511291762616e-05,-3.1227282481871e-05,-5.893586344163e-06,0.00049421492336832,7.6232991213457e-05,0.00021751426707825,0.0013310702618409,94.307266235352,33.439239501953,0
-0.030651344111766,-0.04994941557457,0.0012591743682513,-1.6301073558135e-09,-4.8555919856028e-10,1.6108147961141e-09,4.1184864105847e-10,4.0747062955582e-10,4.9181406201821e-13,267,0,0,0,0,0,0,-1.6301073558135e-09,-4.8555919856028e-10,1.6108147961141e-09,4.1184864105847e-10,0,4.9181406201821e-13,-1.9564865625641e-07,-3.735070758156e-08,1.2390883047031e-07,-3.8575118035485e-08,3.1343894581217e-08,-7.0217950881366e-08,3.1468937452592e-07,75.888832092285,105.00589752197,20
5.3364280703463e-05,0.0001584075251909,3.794373451666e-05,9.6269621293929e-06,3.1815440008915e-06,-3.5637328793505e-07,-2.3854498699587e-06,-6.9789573693717e-07,-1.1615126026143e-06,268,7.5130892036998e-06,4.1944125456405e-06,-6.2865341399817e-07,-3.7719933825109e-06,-3.4472495976664e-07,-3.7410958211889e-06,1.7139987710744e-05,7.3760341625947e-06,-9.8502170511195e-07,-6.1573767048021e-06,0,-4.9026113491218e-06,0.0010913047593852,0.00024473415391473,-2.7413329841157e-05,0.0001672730671274,-5.3684287456705e-05,0.00026142208769236,0.001096147136621,81.479988098145,2.3793544769287,5.3718366622925
0,0,0,-2.787343142654e-07,-5.0486667586341e-07,-2.1004259977689e-08,-1.3398219979212e-08,2.124893953913e-08,1.1313718954368e-07,269,0,0,0,0,0,0,-2.787343142654e-07,-5.0486667586341e-07,-2.1004259977689e-08,-1.3398219979212e-08,0,1.1313718954368e-07,-3.1767755599315e-05,-3.8835898143339e-05,-1.6157123059761e-06,-1.135728680807e-05,1.6345338107023e-06,-1.6237937678476e-06,7.9135048514661e-05,46.07727432251,0,13.314332008362
0,0,0,-2.7600635860868e-07,-5.0705811400452e-07,1.0854755874603e-08,-1.2607868764644e-08,-7.3706839109479e-09,1.0271056253139e-07,270,0,0,0,0,0,0,-2.7600635860868e-07,-5.0705811400452e-07,1.0854755874603e-08,-1.2607868764644e-08,0,1.0271056253139e-07,-3.1956469787702e-05,-3.900447030804e-05,8.3498122112331e-07,-1.1695047492007e-05,-5.6697568545753e-07,-2.8243989307736e-06,7.9262225801077e-05,47.559036254883,0,7.2234477996826
-0.027755248444794,-0.052148811028513,0.0010920752383603,-5.3993782921429e-06,2.4999118150875e-06,-3.614634599529e-07,2.2168910092272e-06,-2.5723442345651e-07,6.0558073574142e-07,271,-1.2509909010862e-05,8.8685082246912e-06,-9.5021972508003e-07,1.107070009568e-05,2.0412429439591e-06,1.4392089151821e-06,-1.7910775882481e-05,1.1366561836003e-05,-1.3120302020764e-06,1.3289104912034e-05,0,2.0447644232722e-06,-0.00056400447711721,0.00019230090885289,-2.7804881534838e-05,2.1862392218954e-05,-1.9787263342809e-05,-0.00010208455189533,0.001329088707655,5.0376086235046,82.230979919434,20
-0.00019123644722679,-4.7323118444753e-05,4.2998812097903e-05,3.427032532557e-07,-6.3940131031501e-07,1.6838292783493e-07,-4.3820026995532e-06,1.2843858413626e-06,3.7630035555094e-07,272,1.8365973155939e-06,-2.3286675896728e-07,6.211188889982e-09,-2.7414064867075e-06,9.8898433627216e-07,9.0480917111365e-07,2.1793047476085e-06,-8.7221799020267e-07,1.7457612237461e-07,-7.1234110230548e-06,0,1.2811071846997e-06,-0.00018496508190802,-4.9184716178078e-05,1.2952532910379e-05,-0.00054840400135486,9.8798910874049e-05,-0.00018238068942377,0.0010814727740016,77.028015136719,11.478758811951,14.60514831543
0.00010748367364952,0.00021666535670078,-6.2638006883071e-05,8.3548424774222e-06,5.0029472474364e-06,-1.1581528028598e-06,-1.476653610618e-06,8.3078633860667e-07,-1.0222109960285e-06,273,6.8694751160328e-06,4.7124454494152e-06,-1.3046774621329e-06,-3.4887611624652e-06,7.5282861296803e-07,-3.3807139535676e-06,1.5224239001108e-05,9.7154777855e-06,-2.462854405544e-06,-4.965336633975e-06,0,-4.402924496357e-06,0.00098052506773108,0.00038484209595665,-8.9088677143065e-05,0.00022425613788183,6.3906641431282e-05,0.00025921326208102,0.0010899801496435,81.792144775391,2.5200617313385,15.049789428711
8.1067525794901e-05,0.00033871628402527,-3.3545627275488e-05,5.0107701966827e-06,3.8818232629581e-06,-2.2372837780639e-07,-4.5201253608119e-07,1.3368080559154e-06,-1.4518187069541e-08,274,5.0101104344114e-06,5.2510491080004e-06,-6.7419846666276e-07,-1.7983043784584e-06,1.1125656268881e-06,-3.2118060559529e-06,1.0020781021434e-05,9.1329411262335e-06,-8.9794252543674e-07,-2.2502028790092e-06,0,-3.2263386688929e-06,0.00064761152321783,0.00029860178945832,-1.7209875215876e-05,0.00022739746685137,0.00010283138891657,0.00026105087831381,0.001107087053711,84.754585266113,3.9728667736053,9.1723871231079
-3.8308351092237e-05,-1.0568981112133e-06,-5.2174645683951e-06,-2.6557093713826e-06,-2.0067183057441e-06,-7.495534136805e-08,-1.7254997268527e-08,-1.9182645874997e-08,1.0705373492004e-06,275,0,0,0,0,0,0,-2.6557093713826e-06,-2.0067183057441e-06,-7.495534136805e-08,-1.7254997268527e-08,0,1.0705373492004e-06,-0.00029673304892081,-0.0001543629465957,-5.76579548985e-06,-9.3775020142811e-05,-1.4755881442306e-06,-1.0098685799049e-05,0.00039032002081702,60.994995117188,10,5.6966581344604
-0.026076381766148,-0.052141060716888,0.00091239216970709,-4.2920436317868e-06,-6.3146112440529e-07,1.0766275962035e-06,6.3039986488745e-06,-3.6269033738436e-07,-6.0903312174403e-07,276,-1.1068298429412e-05,-1.3518969366668e-06,1.2363143643741e-06,1.7004400077265e-05,-1.2971954512504e-06,-5.9361016478529e-06,-1.5359863605576e-05,-1.9866689231174e-06,2.3131165686921e-06,2.3307973668021e-05,0,-6.5451881671016e-06,-0.0002492194007907,-4.8573932646561e-05,8.2817507400266e-05,0.00056586077464479,-2.7899256721874e-05,3.4089099981824e-05,0.0012250165792909,4.8685207366943,77.070205688477,0
-0.030633281806247,-0.049970310640123,0.0012360153354733,-3.8169045196428e-09,-7.6345647369158e-09,2.9082277809393e-09,-1.0422676958683e-08,7.3060781745965e-09,1.1266021599361e-08,277,0,0,0,0,0,0,-3.8169045196428e-09,-7.6345647369158e-09,2.9082277809393e-09,-1.0422676958683e-08,0,1.1266021599361e-08,-4.6515957145126e-07,-5.8727421053198e-07,2.2370982930302e-07,-9.7329591291586e-07,5.620060134305e-07,6.9506551462594e-07,2.8650970236788e-06,63.713821411133,100,15.048451423645
-0.030633366284882,-0.049982211897642,0.0012224728363808,1.0939026600005e-08,-2.5991722282846e-08,-1.0404502506961e-08,-5.9891952718386e-08,2.6666811880392e-08,3.7417503601081e-08,278,0,0,0,0,0,0,1.0939026600005e-08,-2.5991722282846e-08,-1.0404502506961e-08,-5.9891952718386e-08,0,3.7417503601081e-08,1.7595843938686e-07,-1.9993632525266e-06,-8.0034634668934e-07,-5.2725784312586e-06,2.0512932215686e-06,2.2127643625466e-06,1.1250566991095e-05,56.600521087646,100,15.146236419678
-1.0821940950929e-06,2.4835865828874e-08,9.5747535673583e-08,-6.0984441877351e-08,-5.3335193916833e-08,9.7290623261843e-11,4.5561776945824e-09,1.2060409786535e-09,1.9190050096798e-08,279,0,0,0,0,0,0,-6.0984441877351e-08,-5.3335193916833e-08,9.7290623261843e-11,4.5561776945824e-09,0,1.9190050096798e-08,-6.8394694186022e-06,-4.1027072243718e-06,7.4838940970649e-09,-1.7978832976842e-06,9.2772382973344e-08,-6.7220080520609e-07,9.5978944609308e-06,19.070335388184,10,12.600498199463
-0.030652533305894,-0.049976192267953,0.001228733709823,1.8801431414019e-09,-8.4479971011589e-09,1.9557269937169e-10,-1.2086673914926e-08,1.5840706872897e-08,7.5817299384408e-09,280,0,0,0,0,0,0,1.8801431414019e-09,-8.4479971011589e-09,1.9557269937169e-10,-1.2086673914926e-08,0,7.5817299384408e-09,-6.8044219162246e-09,-6.4984593085838e-07,1.5044053797823e-08,-1.0811749647107e-06,1.2185159132998e-06,4.31779177856e-07,3.7637372837097e-06,60.234107971191,110,16.202598571777
-0.011464311057172,-0.030168096915515,0.00034734974284284,1.5757833420328e-06,3.0677695622533e-06,4.1986078974187e-08,-2.2290045873681e-07,9.3447893678086e-08,-4.2744934244813e-07,281,0,0,0,0,0,0,1.5757833420328e-06,3.0677695622533e-06,4.1986078974187e-08,-2.2290045873681e-07,0,-4.2744934244813e-07,0.00017460449982067,0.00023598227401948,3.2296983826298e-06,3.6244207453777e-05,7.1882995136989e-06,2.0509677937521e-05,0.0005447888006417,42.368808746338,50,15.449769020081
-0.027598391726434,-0.053405292606919,0.00097595538928182,-4.2318821480415e-06,1.712380125461e-06,7.0707609216207e-07,1.1716271079465e-05,6.546722462521e-07,8.101143533979e-07,282,-2.07971669381e-05,6.3887802626616e-06,1.5811638094676e-06,2.8580615823491e-05,6.8474947334407e-07,-7.7834488853912e-06,-2.50303302174e-05,8.0958081530179e-06,2.2884361178194e-06,4.0298219933394e-05,0,-6.9733864311727e-06,0.00015299963965959,0.00013172154811239,5.4390468627852e-05,0.0013797806571601,5.0359403557854e-05,0.00054084552438569,0.0013562974186708,0.26162171363831,82.886123657227,5.3451156616211
-0.03062931048479,-0.049937258732013,0.0012738970393445,-5.6031748892836e-11,-8.8826815442376e-11,-6.2886794418532e-10,1.9162069519149e-10,-7.5620919732882e-12,-3.249888123449e-10,283,0,0,0,0,0,0,-5.6031748892836e-11,-8.8826815442376e-11,-6.2886794418532e-10,1.9162069519149e-10,0,-3.249888123449e-10,-1.523704987904e-08,-6.8328319571058e-09,-4.8374457245025e-08,3.813138127447e-09,-5.8169938256063e-10,-3.5926054759967e-08,1.0798963399192e-07,83.673309326172,110,4.2035894393921
-0.030613791639997,-0.049945642078726,0.0012649276926852,-9.4226165591488e-10,-9.7003413590426e-11,-1.2106198456047e-09,3.9336532857604e-10,-7.7462577185696e-11,-2.04894070469e-10,284,0,0,0,0,0,0,-9.4226165591488e-10,-9.7003413590426e-11,-1.2106198456047e-09,3.9336532857604e-10,0,-2.04894070469e-10,-1.1596957340544e-07,-7.4618010454174e-09,-9.312460350805e-08,-1.3229036136911e-08,-5.9586597835151e-09,-5.9248989909606e-08,2.1807051011927e-07,78.880935668945,105.6335144043,0
-0.00061086326366947,0.0015701747983954,1.6668376159634e-05,-2.0234484538073e-06,5.4138737863177e-06,9.0452349466417e-07,4.4941119238388e-06,2.255716642718e-07,-1.4562068153494e-07,285,-8.4501367327491e-06,1.5041796741953e-05,1.8840072117839e-06,1.4363415656151e-05,3.8033629073486e-07,-5.913278923402e-06,-1.0475419211092e-05,2.0454112415432e-05,2.7884248445789e-06,1.8859464539997e-05,0,-6.0590025404085e-06,-2.1512797110376e-05,0.00041645182971675,6.9578730358782e-05,0.00047983800117009,1.7351666482446e-05,0.00012293549306442,0.0013165352676703,96.523277282715,16.169347763062,5.0792741775513
-0.0010707130016834,0.0022005735785405,-0.00014004992986626,-3.0150935595811e-06,5.0492341113922e-06,6.507646734912e-07,5.2875735023347e-06,-8.1929592715778e-07,1.4838635554691e-06,286,-1.3870150472236e-05,1.6256049507171e-05,2.4737690592953e-06,1.6806606811411e-05,-2.9615256241081e-06,-2.9364563391749e-06,-1.6887418284806e-05,2.130290006126e-05,3.1247104510359e-06,2.2096516715157e-05,0,-1.4527549321286e-06,-1.5218148916457e-05,0.00038840262395325,5.0058821037785e-05,0.00062344854815399,-6.3022763627522e-05,0.00033085547531817,0.0014036856205931,98.11937713623,19.834362030029,10.270031929016
-0.03084082867079,-0.050500764856755,0.0011217466189864,8.0724172721055e-06,3.7003112655858e-06,-3.3949861557061e-07,-4.5400151041815e-07,-3.0255237866013e-07,-9.8167661630905e-07,287,9.9142007171329e-06,7.6032416294243e-06,-2.6031546840413e-08,-3.4767430719705e-06,-2.3450279569864e-07,-6.4374576451624e-06,1.7986283323317e-05,1.1303824770929e-05,-3.654437018887e-07,-3.9304052881934e-06,0,-7.4191388897455e-06,0.0010038439716261,0.00028463932812199,-2.6115278120816e-05,0.00034796560373966,-2.3273259896933e-05,0.00030737521097882,0.0011628899230801,14.046195030212,105.2894821167,12.600533485413
-0.029015501469282,-0.051496293677244,0.0009393138090729,-3.519003123846e-06,4.5363751834373e-06,9.8578882189076e-07,8.0289124864636e-06,-4.6158714743825e-07,-1.5156514473088e-06,288,-1.5627151042342e-05,1.7009672065181e-05,-6.2286394517102e-07,2.781323226581e-05,3.8906075591926e-07,-1.2186081223468e-05,-1.9149210522177e-05,2.1542123427256e-05,3.6266182152541e-07,3.5845333051562e-05,0,-1.3701864614076e-05,-9.7946899028031e-05,0.00034895193718748,7.5829909376213e-05,0.00079035430176502,-3.5506703649096e-05,5.6157076090219e-05,0.0014673578301672,6.5272674560547,87.384719848633,20
-0.018225610939299,-0.040046236744836,0.00061058870635523,-2.2180743073404e-06,3.4825619994439e-06,6.0567046231043e-07,-2.8479464004256e-06,-4.289784118544e-07,1.0562564006853e-06,289,-4.4405861621327e-07,1.0471532529348e-06,-5.892079150116e-08,-3.8139584273002e-07,-3.565683747637e-07,8.2545445894329e-07,-2.662415276108e-06,4.5297253693369e-06,5.4680876900694e-07,-3.2290564457664e-06,0,1.8817074147937e-06,-0.00040195365674238,0.00026788938457261,4.6590035562341e-05,-0.00045040535621047,-3.2998339373416e-05,-0.00015008206381733,0.00097409028489069,27.096881866455,60.357418060303,6.173764705658
-0.00067551306186037,0.0017558541976979,-0.00013460986762485,-1.7696317607519e-06,4.2383142172737e-06,1.2478910730459e-07,2.2038648441262e-06,-1.1282466623035e-06,1.3175997709893e-06,290,-6.7791359639774e-06,1.1891624221529e-05,1.1470751087414e-08,7.0712773905617e-06,-2.7499048368928e-06,-2.9214142658431e-07,-8.5499747145508e-06,1.6128973800344e-05,1.3638046265114e-07,9.2764329632453e-06,0,1.0253746056691e-06,-3.50582399984e-05,0.00032602417055952,9.5991621003531e-06,0.00027059534499223,-8.6788204792577e-05,0.00020242110859708,0.0013195344347783,97.099166870117,17.468984603882,15.459211349487
-0.00057316109547437,0.0015220982480092,-2.6172585678948e-05,1.9069604274456e-06,7.7802235929725e-06,3.9325517374653e-07,9.1594068200377e-06,-5.0239155789185e-07,3.0234422687264e-06,291,-7.6895295741323e-06,2.3571723391629e-05,8.1024295822797e-07,1.4884673340623e-05,-2.0298977914751e-06,-7.1951437664911e-06,-5.7845748641537e-06,3.1350790757934e-05,1.2034679536042e-06,2.4046173557304e-05,0,-4.171789176941e-06,0.00095956288958483,0.00059847873792096,3.0250397980502e-05,0.0015174433813227,-3.8645504453219e-05,0.0010454461081449,0.0013531155495556,95.573745727539,14.597826004028,10.657485961914
-0.0049127539675314,0.0034492755069687,-0.00017210059174579,-2.9973360803943e-06,-1.4291057347189e-06,-1.2470241607969e-06,6.2501465577294e-06,6.1765474306986e-07,-2.8681770665669e-07,292,-1.1841690961493e-05,-2.9998717218981e-06,-2.3078750813433e-06,1.6455876943548e-05,6.96390033843e-07,-4.6141859820555e-06,-1.4838294154998e-05,-4.4323874353338e-06,-3.5550961480356e-06,2.2705327411158e-05,0,-4.9010404854816e-06,-5.9449346337343e-05,-0.00010993121036299,-9.5924935445912e-05,0.00065189547197986,4.7511903313066e-05,0.00014905206702709,0.00131388928219,99.415809631348,35.075656890869,5.3707294464111
-0.012516355794255,-0.0040799214538263,5.9824292073463e-05,4.6410492992979e-06,-2.3680448996199e-07,-3.7399277087177e-07,-3.5030157571966e-06,1.9523346940068e-06,1.3316523037402e-07,293,4.7574796054293e-06,-2.7426243242714e-07,3.1619012707205e-07,-5.2599634769202e-06,1.9001497574717e-06,5.0248387149087e-07,9.3985271565691e-06,-5.094132596652e-07,-5.8049671907397e-08,-8.7630033597894e-06,0,6.3567497569558e-07,0.00043034218297342,-1.8215729997076e-05,-2.8768674682444e-05,-0.00019612435983386,0.00015017959184668,8.3581869979269e-05,0.001159379593489,81.938980102539,51.426910400391,0
-0.01687706284474,-0.050430113769427,0.00069032589501948,1.0648139104311e-06,-3.5823654965907e-06,2.9117133127471e-07,-1.366461935377e-06,-1.2373176944767e-07,7.2720956987755e-07,294,1.3491793471801e-06,-1.1573580399e-05,2.3120694342786e-07,-6.4455642636624e-07,-9.3693618517046e-07,-7.0462292081387e-07,2.4180921711362e-06,-1.5155370263187e-05,5.2246017272468e-07,-2.0150833068236e-06,0,2.2552680619023e-08,0.00010646038993306,-0.00027556657666082,2.239779471344e-05,-8.0560828975257e-05,-9.5178284190512e-06,8.0490825275096e-05,0.0012865243597274,9.6938514709473,58.035541534424,11.657516479492
-0.011506349638746,-0.019749581549578,0.00023700814007797,-9.6943082278824e-07,3.062696730272e-06,-8.6777855140842e-08,-4.0670967019238e-09,2.4203422048634e-07,1.3059112127626e-07,295,0,0,0,0,0,0,-9.6943082278824e-07,3.062696730272e-06,-8.6777855140842e-08,-4.0670967019238e-09,0,1.3059112127626e-07,-0.00012320084011144,0.00023559205617477,-6.6752196262186e-06,-4.894209195095e-05,1.8618016960488e-05,-3.8583767491089e-05,0.00049836379569939,57.872131347656,50,9.8059635162354
-0.011544934784693,-0.01886072213415,0.00022645119185294,-2.4978914354971e-06,2.746966253363e-06,-1.5155570770308e-07,3.9970152731993e-07,-2.2150862501253e-07,1.114736873454e-06,296,0,0,0,0,0,0,-2.4978914354971e-06,2.746966253363e-06,-1.5155570770308e-07,3.9970152731993e-07,0,1.114736873454e-06,-0.00024888317011842,0.00021130509641253,-1.1658131361776e-05,-2.599140374788e-05,-1.7039125000964e-05,2.9011315185512e-05,0.00055958621643269,59.089775085449,50,4.7180714607239
-0.027906323098604,-0.051628827499084,0.0009835604702358,-3.9886092822866e-06,2.5549520081876e-06,-1.9136123386147e-06,8.7260130968476e-06,7.2526082421307e-07,-7.6717439670617e-07,297,-1.4566708381953e-05,7.0064059656693e-06,-3.0925718378439e-06,2.054411071269e-05,2.5699307803492e-06,-5.9774023307375e-06,-1.8556753898509e-05,9.5579274753561e-06,-5.0062903842374e-06,2.9271462894077e-05,0,-6.7444795777124e-06,-7.7764401453497e-05,0.00019653476986059,-0.00014720094912421,0.00090028347386452,5.5789294170236e-05,0.00017003828205269,0.0013089581716276,5.8140926361084,82.986480712891,0
-0.018042682405805,-0.032109143140032,0.00053906567514371,-2.4596802724438e-06,3.3572051864655e-06,-8.3503789504229e-07,2.4855709833668e-07,2.2680825399624e-07,7.8594523781557e-07,298,0,0,0,0,0,0,-2.4596802724438e-06,3.3572051864655e-06,-8.3503789504229e-07,2.4855709833668e-07,0,7.8594523781557e-07,-0.00027142797882019,0.00025824655280504,-6.4233684234023e-05,-6.310202722169e-05,1.7446788768941e-05,-2.1764478031006e-05,0.00066482016089318,39.408546447754,60,13.989236831665
-0.01806004412787,-0.023307622022719,0.00042739696153938,2.9741861640468e-07,3.2348071361034e-06,-3.1114263222091e-07,-2.5525660582305e-07,2.1234989499707e-08,-1.0473432201304e-07,299,0,0,0,0,0,0,2.9741861640468e-07,3.2348071361034e-06,-3.1114263222091e-07,-2.5525660582305e-07,0,-1.0473432201304e-07,1.9268414063932e-05,0.0002488313181618,-2.3934048632378e-05,-2.324506456897e-05,1.6334607307467e-06,-1.1666427352816e-05,0.00046239265041631,52.661930084229,60,15.654330253601
-0.011464982669109,-0.021366621910589,0.00025905551785865,-8.4275534131333e-07,3.517174700213e-06,3.5573239228678e-07,-3.043756457865e-07,2.0479600809998e-07,2.9676117155611e-07,300,0,0,0,0,0,0,-8.4275534131333e-07,3.517174700213e-06,3.5573239228678e-07,-3.043756457865e-07,0,2.9676117155611e-07,-0.00011388713099778,0.00027055190001639,2.7364030175906e-05,-7.2473308264944e-05,1.5753539084614e-05,-2.6232014623205e-05,0.00054140056511575,55.548366546631,50,15.009176254272
-0.030636049216712,-0.049930663052405,0.0012811615200773,1.4729539709228e-10,-1.4708866159707e-11,-1.3218653332231e-10,9.8123472976993e-11,7.6870752657316e-12,-2.7347106162138e-10,301,0,0,0,0,0,0,1.4729539709228e-10,-1.4708866159707e-11,-1.3218653332231e-10,9.8123472976993e-11,0,-2.7347106162138e-10,9.7120194944765e-09,-1.1314512430544e-09,-1.0168194870947e-08,5.9295637933008e-09,5.9131348197935e-10,-2.2654631175805e-08,4.6673781157054e-08,87.436592102051,110,7.6930365562439
-0.030613313939426,-0.049993593491939,0.0011874277683038,5.1525941048212e-07,-1.4159250930939e-06,1.1126549743714e-07,-7.8327946604769e-07,1.6028393640545e-07,1.4475320422765e-07,302,0,0,0,0,0,0,5.1525941048212e-07,-1.4159250930939e-06,1.1126549743714e-07,-7.8327946604769e-07,0,1.4475320422765e-07,3.2523790152206e-05,-0.00010891731485338,8.5588844182413e-06,-6.7363815734702e-05,1.232953356965e-05,4.0233127480165e-06,0.00023388195527504,40.238864898682,104.84690093994,0
-0.030141032409249,-0.051725104636989,0.0010002024948883,-1.4564093522188e-06,4.0209881326381e-06,1.5629037524245e-06,1.4160744210271e-06,1.1968808027836e-06,1.62137301581e-06,303,-7.9597913279212e-06,1.3313157219654e-05,3.5043671781526e-06,9.2500040394915e-06,3.8276539688462e-06,-1.2902127115703e-06,-9.4184570494868e-06,1.7332347498827e-05,5.0668699933075e-06,1.066837214979e-05,0,3.3112298431536e-07,-2.0817752981162e-05,0.0003093067794337,0.00012022336557112,0.00020014253726853,9.2067754060275e-05,0.00021593473686721,0.0013903994042506,4.1384739875793,95.008758544922,15.35705280304
-0.03065030725181,-0.04991464554937,0.0012988864342454,9.1467637120437e-13,1.0352868939407e-13,2.9640653099888e-11,2.6786215014699e-11,-6.5391586463557e-12,-3.6189846869399e-11,304,0,0,0,0,0,0,9.1467637120437e-13,1.0352868939407e-13,2.9640653099888e-11,2.6786215014699e-11,0,-3.6189846869399e-11,-4.1938771087823e-10,7.9637453380055e-12,2.2800502384529e-09,1.5707306463137e-09,-5.0301220356582e-10,-3.2735818063093e-09,6.5141089172208e-09,96.616485595703,110,15.077470779419
-0.030636326063091,-0.049915349555372,0.0012986150156496,1.085170483204e-11,1.3797026617033e-11,2.4456492591453e-11,2.6299928382681e-11,-1.2671136574926e-12,-2.6515779795944e-11,305,0,0,0,0,0,0,1.085170483204e-11,1.3797026617033e-11,2.4456492591453e-11,2.6299928382681e-11,0,-2.6515779795944e-11,1.4483534535479e-09,1.0613097397717e-09,1.881268660881e-09,2.6366783420587e-09,-9.7470281345585e-11,-1.4260684409124e-09,6.4781130983597e-09,96.142784118652,100,16.604978561401
-0.030652567648363,-0.049917984655887,0.0012949921536755,-3.2805659130553e-11,5.2197225709774e-12,6.5820866992675e-11,3.3724014512018e-11,4.0219867821172e-12,-3.3739624692272e-11,306,0,0,0,0,0,0,-3.2805659130553e-11,5.2197225709774e-12,6.5820866992675e-11,3.3724014512018e-11,0,-3.3739624692272e-11,-4.4170470087428e-09,4.0151712084442e-10,5.0631436148212e-09,7.0062019453183e-10,3.093835986244e-10,-4.4888905134905e-09,1.1302772724713e-08,94.457321166992,105.72093200684,20
-0.021736694873521,-0.047448780466165,0.00070265576407887,-3.1703996775336e-06,-1.6504348398285e-06,1.9693386045904e-07,-5.8507549004845e-06,-2.3148148056609e-07,1.3519043504167e-06,307,-2.4416899024894e-06,-7.4262310802045e-06,2.9697652824989e-07,-6.4752168739731e-06,-1.3401621357048e-06,8.9169067764625e-06,-5.609896729866e-06,-9.0757711554405e-06,4.9420562334979e-07,-1.2328111252016e-05,0,1.0268757754281e-05,-0.0006863336421719,-0.00012695652614066,1.514875849685e-05,-0.00089251481316812,-1.7806267735853e-05,-0.00033846410156034,0.0013479158623404,15.324769020081,66.65544128418,5.5576176643372
-0.019427697872589,-0.049004300922521,0.00082558993693681,1.4569871960547e-06,-2.0921729840984e-06,1.071556914286e-06,-4.6096917132611e-06,9.1612048362463e-07,1.6405197038956e-07,308,5.0087777686665e-06,-3.9745198427428e-06,2.9649724944267e-06,-8.0799784408335e-06,2.7356332185228e-06,3.071200672167e-06,6.4666090287e-06,-6.0642555709428e-06,4.0360841734226e-06,-1.2690621723877e-05,0,3.2353601483602e-06,-6.0346324158296e-05,-0.00016093638339218,8.2427454945078e-05,-0.00052701393256721,7.0470806432664e-05,-0.0001598028799787,0.0012833021698881,12.744140625,62.511112213135,20
-0.030631135584789,-0.049974955184646,0.0012310047130893,-4.1351030101209e-09,1.0803458533535e-08,-2.8337181172784e-09,-1.5048073237812e-08,-8.1713373934171e-10,1.3348433925841e-08,309,0,0,0,0,0,0,-4.1351030101209e-09,1.0803458533535e-08,-2.8337181172784e-09,-1.5048073237812e-08,0,1.3348433925841e-08,-6.5470459628384e-07,8.3103527181038e-07,-2.1797831671372e-07,-1.4941638445677e-06,-6.2856441487824e-08,6.9018286032859e-07,3.9263262538624e-06,61.470378875732,110,5.1453838348389
1.6277597479772e-05,0.00068131030178171,8.8376615522084e-06,4.9870991618693e-06,4.3415673142469e-06,-2.0714603207747e-07,-4.810980245623e-07,-4.6429863950373e-07,1.5727480929044e-06,310,4.1865922502161e-06,6.316815960716e-06,-1.5907016087669e-08,-3.8671216206916e-06,-6.3664186921661e-07,-3.1947062952455e-07,9.1734494877071e-06,1.0658547158609e-05,-2.2301508203957e-07,-4.3479452745835e-06,0,1.2532450170878e-06,0.00073432008342522,0.00033396671648053,-1.5934310159806e-05,0.00031368953062279,-3.5715279961825e-05,0.00047167769350484,0.001163370913909,89.650970458984,7.4755263328552,7.4759244918823
0.00013346296164008,0.00033510439400876,4.2188947492732e-05,3.383656751216e-06,2.5529453652966e-06,-9.4563026413862e-07,-2.3089120012627e-06,-3.6759703390066e-07,-9.8104356958418e-07,311,4.7772114679334e-06,3.7143675919117e-06,-9.8322929735313e-07,-3.2591212066701e-06,6.1633552744665e-07,-1.5180902612633e-06,8.1607878954949e-06,6.2674224140449e-06,-1.9288557459233e-06,-5.5679061587954e-06,0,-2.4991805563303e-06,0.00026568712588407,0.00019638041271512,-7.2740789549125e-05,-0.00017220277815275,-2.8276694915435e-05,-7.0059052639022e-05,0.0011297507581896,85.908828735352,4.7417812347412,3.4195652008057
-0.030643923476442,-0.049908845575621,0.0013057442482186,-7.0701484536539e-12,5.7877186235194e-12,2.001438378088e-11,2.3244996578909e-11,-7.0989290051943e-12,-2.7341248033135e-11,312,0,0,0,0,0,0,-7.0701484536539e-12,5.7877186235194e-12,2.001438378088e-11,2.3244996578909e-11,0,-2.7341248033135e-11,-1.1880729526588e-09,4.452091248861e-10,1.5395679831446e-09,1.1438612806153e-09,-5.4607146193803e-10,-2.7473883049266e-09,5.3089292875023e-09,100,104.96157073975,16.1891746521
-0.011715210716434,-0.039068351418785,0.00045467709289849,3.9594561563392e-06,1.7908136697069e-06,8.3867280891054e-09,-1.7135317914891e-06,-1.1573334892198e-07,5.9374580678396e-07,313,1.6779423566025e-06,-2.1369740538427e-07,-2.9147501018797e-07,-1.0146296388769e-06,2.3951842615149e-08,-6.6331271772566e-07,5.6374765113501e-06,1.5775500373256e-06,-2.831023651992e-07,-2.7282409731488e-06,0,-6.9565366567317e-08,0.00046840067577421,0.00013775489766976,6.451329299312e-07,3.2016987479727e-05,-8.9025653016905e-06,0.00020949987965458,0.00086592958434116,28.565954208374,50.165817260742,6.0159249305725
-0.011622036857394,-0.037374338337294,0.00043601332897913,2.7347247066127e-06,3.6904577198048e-06,7.9200416696071e-08,-2.4703325269871e-06,-1.9383159706513e-07,8.1506105124436e-07,314,1.6696326726983e-07,3.185300016093e-07,-2.0099525777123e-08,-1.4587939323871e-07,-2.3333298803058e-08,-2.1083874031119e-08,2.9016441370448e-06,4.0090210533481e-06,5.9103331722843e-08,-2.6161679651954e-06,0,7.9397705902049e-07,0.00027263958690501,0.00028388136306191,6.0923397458516e-06,-0.00012774943106421,-1.4910122851164e-05,0.00012497315187667,0.00090509053862197,31.287729263306,50.043922424316,10.627310752869
-0.0015981852056095,0.002486528340067,-8.4498193573749e-06,-3.2268876631431e-06,6.1828228839989e-06,1.1046020026023e-06,1.4370674227225e-05,-2.1849756197888e-07,-4.9520642220346e-07,315,-2.8020491287102e-05,2.6393509502698e-05,3.5991924239068e-06,4.6851189692453e-05,-8.5103020173793e-07,-1.8830698405351e-05,-3.1251572426145e-05,3.2570111174928e-05,4.7036789949904e-06,6.1226208575906e-05,0,-1.9326056007882e-05,0.00036611903409738,0.00047560176030761,8.4969384815558e-05,0.0017197776410488,-1.6807504767606e-05,0.00057624836032351,0.0015920787982487,98.758094787598,21.895191192627,4.9253706932068
-0.0053497184050624,0.0032064702689387,-0.0002133832570712,-3.7101600594889e-06,-4.5386601638488e-06,1.2910469544941e-07,1.2834924227658e-05,-4.7116519195326e-07,2.6545195877722e-06,316,-2.5051179099272e-05,-1.6466870586993e-05,1.1020447518782e-06,3.1703743826642e-05,-1.1460939871973e-06,-6.6525647273705e-06,-2.8756914044177e-05,-2.1012614301949e-05,1.2315444021372e-06,4.4534430138855e-05,0,-3.9982323387361e-06,0.00039417713518978,-0.00034912770491145,9.9311304191855e-06,0.0016668759265088,-3.6243476304097e-05,0.0008837678772868,0.0014305463993679,99.283615112305,36.051044464111,15.4770154953
-0.030473449953114,-0.051386824840823,0.0010818897831297,3.3892694223485e-06,5.1846526426231e-06,-2.4860903783539e-07,1.4134164665032e-06,-2.428931577367e-07,1.2007622269739e-06,317,3.581743386254e-06,1.0840099909047e-05,-9.6467871970047e-07,-8.5996003882152e-07,5.9370200337603e-08,-2.7217833474325e-06,6.9700136903953e-06,1.6024950689603e-05,-1.2134162126103e-06,5.5454590832492e-07,0,-1.5211114828946e-06,0.00060706580840136,0.00039881943404793,-1.9123772141184e-05,0.00045507711949019,-1.8684089056669e-05,0.00043871910106485,0.0012564930964365,6.6140642166138,98.608329772949,13.09935760498
-1.6064023368441e-06,-1.6220476675064e-07,-3.5363704816074e-07,-1.1340949151916e-07,-1.2288769802718e-07,-1.2375838338421e-08,8.6366079382029e-09,-6.1086138363315e-09,3.3509039405083e-08,318,0,0,0,0,0,0,-1.1340949151916e-07,-1.2288769802718e-07,-1.2375838338421e-08,8.6366079382029e-09,0,3.3509039405083e-08,-1.2835182665466e-05,-9.4528998482446e-06,-9.5198756449396e-07,-3.4470211687461e-06,-4.698933720255e-07,-1.5337572097553e-06,2.1855010462271e-05,30.238826751709,4.7897953987122,0
-0.0010727839907754,0.00024460474804085,-0.00018629918705882,-2.3341956558022e-06,2.1683153313032e-07,1.1918826420132e-06,-7.3042795187779e-06,-1.4575407392115e-06,1.8139928491297e-06,319,5.519706121385e-07,-3.190499533049e-06,2.6520776613304e-06,-9.5460350893163e-06,-2.1569199974706e-06,8.9940644771778e-06,-1.7818371625141e-06,-2.9731697395112e-06,3.8440665987161e-06,-1.6850718579412e-05,0,1.0808073416476e-05,-0.00063096595383769,1.6679348702332e-05,9.1683280154861e-05,-0.0010132800971435,-0.00011211851840089,-0.0003118745303814,0.0011909753960487,87.195419311523,20.145154953003,4.4473118782043
0.00010331780597026,0.00052744843380323,-5.4438331094297e-05,5.0030917390836e-06,3.3947549244169e-06,6.1978659975495e-07,-1.8918807915008e-06,9.3821366021177e-07,-2.18556971498e-07,320,4.585447396146e-06,4.1841583520024e-06,2.9530043944863e-07,-2.9089990732669e-06,9.658757744521e-07,-1.6764483228791e-06,9.5884160423009e-06,7.5790195499947e-06,9.1507070378304e-07,-4.8007520664493e-06,0,-1.8950099997668e-06,0.0005517370939344,0.00026113499418591,4.7675892288842e-05,2.135459158176e-05,7.2170281554751e-05,0.00015007180850505,0.0011121620244674,87.954452514648,6.1291151046753,14.40909576416
-0.011498950064001,-0.01706095185582,0.00021341984859858,-2.1695173237491e-06,3.6046969274288e-06,4.5722572206311e-07,-4.2408387562262e-07,3.1472846471898e-07,6.5849473650526e-07,321,-2.7398232528038e-08,2.5069655301179e-08,2.1751194212208e-09,1.2753643154021e-08,3.8058225820043e-10,1.4644589374017e-08,-2.1969161249804e-06,3.6297661262386e-06,4.5940084848645e-07,-4.1132966294137e-07,0,6.7313932505533e-07,-0.00027852670545377,0.00027728437903299,3.517120938947e-05,-0.00014426259405942,2.420988190146e-05,-6.098731620343e-05,0.00074724112090324,62.018169403076,50,14.555441856384
-0.00044107460698321,0.00018764430145177,6.9377644617844e-06,-1.487592146568e-06,9.5004516173313e-08,-2.8846614068536e-07,-6.2224462521984e-06,-1.0964024218304e-07,1.6947942883752e-06,322,2.8488193295315e-07,-2.1603368407878e-06,-5.7624419181027e-07,-6.3925940164117e-06,-2.1454056740715e-07,6.1077120834585e-06,-1.2025478765101e-06,-2.0652007434757e-06,-8.6468339418811e-07,-1.2615186365567e-05,0,7.802490131686e-06,-0.00046146347918165,7.3080397056395e-06,-2.2189703129643e-05,-0.0008256830257686,-8.4338647833109e-06,-0.00021666452264755,0.0011339308115956,82.963081359863,15.01962852478,11.730275154114
-0.014766377159579,-0.027211456582544,0.00039454178166196,1.7898122936029e-07,2.8781240748168e-06,3.4833383261303e-07,-3.0797058801545e-07,1.2893725757515e-07,3.0163009514747e-09,323,0,0,0,0,0,0,1.7898122936029e-07,2.8781240748168e-06,3.4833383261303e-07,-3.0797058801545e-07,0,3.0163009514747e-09,6.5001104678872e-06,0.00022139415960129,2.6794910201002e-05,-3.0957721637939e-05,9.9182505827037e-06,-7.0356532558681e-06,0.00044930402984481,46.462539672852,54.844104766846,0
-1.7194225895488e-05,-2.9634847444672e-06,6.4201681205169e-06,-1.4078602923037e-06,-1.6452171443803e-06,2.6915135350347e-07,-1.6668996293358e-07,1.9784989948784e-07,6.5155651953965e-07,324,0,0,0,0,0,0,-1.4078602923037e-06,-1.6452171443803e-06,2.6915135350347e-07,-1.6668996293358e-07,0,6.5155651953965e-07,-0.00016154658415976,-0.00012655516495233,2.0703950269498e-05,-6.6071943438983e-05,1.5219223037526e-05,-3.129906325657e-06,0.00028758518455971,57.960903167725,5.2125387191772,20
-0.030653890517576,-0.049992602082205,0.0011945343580314,3.5033720136621e-07,-1.5725652273979e-06,-3.5871602323e-07,-8.9747600921787e-07,-2.7836356901779e-07,3.1398124479228e-07,325,0,0,0,0,0,0,3.5033720136621e-07,-1.5725652273979e-06,-3.5871602323e-07,-8.9747600921787e-07,0,3.1398124479228e-07,1.3497617620898e-05,-0.00012096655595368,-2.7593540248462e-05,-8.2488013962492e-05,-2.1412582232138e-05,1.070100557675e-05,0.00027244029515583,40.375492095947,104.38481903076,20
-0.018125405085867,-0.021475833084842,0.00041291114721163,7.3577868582195e-07,2.9611365984832e-06,2.3252509899259e-07,-9.7710883710985e-08,2.5939113343135e-08,-4.8243137782994e-08,326,0,0,0,0,0,0,7.3577868582195e-07,2.9611365984832e-06,2.3252509899259e-07,-9.7710883710985e-08,0,-4.8243137782994e-08,9.0626706466764e-05,0.00022777973834486,1.7886546076353e-05,2.6512124195e-05,1.9953164110104e-06,3.031733542023e-05,0.00044654618562954,55.198192596436,60,6.2064685821533
-0.03063423301683,-0.049923703659287,0.0012891662467496,2.3146603402178e-11,3.0252500650208e-11,9.2017664726286e-11,3.707202765664e-11,2.4028054348514e-11,-7.7986324853831e-11,327,0,0,0,0,0,0,2.3146603402178e-11,3.0252500650208e-11,9.2017664726286e-11,3.707202765664e-11,0,-7.7986324853831e-11,7.5544869660912e-10,2.3271154346314e-09,7.078281902022e-09,1.8266351777215e-09,1.8483118729626e-09,-7.0240073230839e-09,1.8814276275371e-08,91.249809265137,100,15.521018981934
-0.00012822616438281,0.00030059518759244,-5.3786203221046e-05,2.9880404649398e-06,2.4960155659297e-06,-1.1835324628363e-06,-2.2007246647708e-06,-3.344666595368e-06,1.7572100086318e-06,328,3.3459050666468e-06,4.8065207533196e-06,-1.6789340027499e-06,-4.2449610181765e-06,-3.5774216005618e-06,8.9905595152974e-07,6.3337078807999e-06,7.3026824829634e-06,-2.8624351133792e-06,-6.4454650560811e-06,0,2.656282984082e-06,0.00037664883242619,0.00019200119737921,-9.1040958679715e-05,-2.2486946782323e-05,-0.00025728204579754,0.00028196956655634,0.0011365918000202,86.046821594238,9.8312349319458,0
-0.014783153018877,-0.021692128551698,0.00033653146240137,3.6773811009654e-07,3.0198742749137e-06,1.930188105617e-07,-2.1021021115241e-07,-2.2158238637267e-07,-7.5819839012205e-08,329,0,0,0,0,0,0,3.6773811009654e-07,3.0198742749137e-06,1.930188105617e-07,-2.1021021115241e-07,0,-7.5819839012205e-08,3.3001473465037e-05,0.00023229802114721,1.4847600812439e-05,-1.1456089707958e-05,-1.7044798951744e-05,-1.1183687740967e-06,0.00044776082499361,55.175537109375,55.091239929199,20
-0.014863557662679,-0.017395394937993,0.00028898354238131,7.7393721025814e-07,3.0932623026782e-06,-5.802485207462e-09,-7.9626100845338e-07,4.9733284572656e-09,9.0111515299346e-08,330,0,0,0,0,0,0,7.7393721025814e-07,3.0932623026782e-06,-5.802485207462e-09,-7.9626100845338e-07,0,9.0111515299346e-08,6.3444461391247e-05,0.00023794325405217,-4.463450159586e-07,-5.7340016971178e-05,3.8256372748197e-07,1.0842484855955e-05,0.00058276028636196,61.629081726074,55.221622467041,20
-0.018073706652608,-0.021218802960608,0.00040593413066354,1.2935126495449e-06,2.994698648202e-06,-2.2524521661871e-07,-3.0748916903701e-07,2.7314982943206e-07,-1.2487218981816e-07,331,0,0,0,0,0,0,1.2935126495449e-06,2.994698648202e-06,-2.2524521661871e-07,-3.0748916903701e-07,0,-1.2487218981816e-07,0.00014918277827402,0.00023036143447708,-1.7326555124516e-05,2.6028792229254e-05,2.1011525340927e-05,4.0076252169166e-05,0.00045391602564804,55.735046386719,60,12.758466720581
-3.4802620521873e-05,-2.389335859614e-05,-7.7997981667834e-06,2.7156875350759e-06,-2.6855413618842e-06,-1.2795283793304e-06,-3.6112139447376e-06,-1.4156646524641e-06,-2.954285743381e-07,332,1.3939306795305e-06,-9.5180181813578e-08,-3.3327228713057e-07,-1.0813932710268e-06,-5.8422027481526e-07,-3.1253740850372e-07,4.1096158870649e-06,-2.7807114130035e-06,-1.6127943797031e-06,-4.692603649835e-06,0,-6.0796722122961e-07,0.00014019009977508,-0.00020658010476032,-9.8425259948493e-05,-0.00034649462944134,-0.00010889728095878,-9.1434216333686e-05,0.00098873018227039,75.335327148438,5.676374912262,0
-0.030649948445085,-0.04999364793823,0.0012104504270811,1.0982139850037e-07,-1.7959423180708e-07,-1.5188004384675e-08,-3.5076197903688e-07,9.3458431064855e-08,1.5902107868826e-07,333,0,0,0,0,0,0,1.0982139850037e-07,-1.7959423180708e-07,-1.5188004384675e-08,-3.5076197903688e-07,0,1.5902107868826e-07,3.7216747780144e-06,-1.3814940908237e-05,-1.1683080295904e-06,-3.1707815801774e-05,7.1891100819119e-06,7.5062655616975e-06,6.2334389184223e-05,50.407745361328,110,14.610422134399
-0.030651329263094,-0.049987972231167,0.0012153578621059,5.0361249420424e-08,-6.9123451191687e-08,-4.4976097089199e-08,-1.896875814095e-07,3.8347820568812e-08,7.3248171631191e-08,334,0,0,0,0,0,0,5.0361249420424e-08,-6.9123451191687e-08,-4.4976097089199e-08,-1.896875814095e-07,0,7.3248171631191e-08,6.1740704000937e-08,-5.3171885532067e-06,-3.4596997760923e-06,-1.8403553975224e-05,2.9498323514471e-06,1.8222731817522e-06,3.1925571872367e-05,52.792449951172,105.10592651367,20
-2.7237354079514e-05,8.1580252767252e-05,2.609754423996e-05,5.75227470872e-06,2.536252408914e-07,-6.9212142753908e-07,-4.0864410969467e-06,-2.5426433089988e-06,7.749826280563e-08,335,3.6553751059451e-06,1.0825878373214e-06,-4.4607355258979e-07,-2.8230020140539e-06,-1.2277250644705e-06,-8.3237309189125e-07,9.4076355135023e-06,1.3362534158527e-06,-1.1381765556053e-06,-6.9094359791718e-06,0,-7.5486765975155e-07,0.00054305950881956,1.9509633914723e-05,-5.3240109810699e-05,-0.00021376478392403,-0.00019558794684606,0.00010653824374922,0.0010463063811968,81.283096313477,7.6527972221375,0
-0.0029208059574994,0.001944782025077,-2.8540788926851e-05,-4.0829520689165e-06,-1.6517923366259e-07,-2.1937459991432e-06,-2.2817183161992e-06,1.4892092767407e-06,3.2133485880434e-06,336,-3.7437979010044e-06,-2.9758546176252e-07,-3.4197394846055e-06,-2.7241734178727e-06,1.3477821504089e-06,6.4679713188771e-06,-7.8267490889814e-06,-4.6254197885566e-07,-5.6134722761477e-06,-5.0060176898562e-06,0,9.6814449817653e-06,-0.00049588026282467,-1.2706094897122e-05,-0.00016874969224179,-0.00035732382030796,0.00011455455974928,6.5373633864546e-05,0.0011692680220439,95.661254882812,29.462856292725,20
-0.02979588326554,-0.050325374794747,0.0012187974597161,-2.8206223654829e-06,-1.6401313698051e-07,5.572066450848e-07,-8.0703727836159e-06,-7.7246756914246e-07,2.7163342240348e-06,337,-2.7904677481809e-07,-4.2257003989307e-06,1.3221142746808e-06,-1.2597476879289e-05,-1.1619600942957e-06,1.2876523654108e-05,-3.099151998345e-06,-4.3891247976503e-06,1.8792350045384e-06,-2.0668390304718e-05,0,1.5592881377999e-05,-0.00068858600456006,-1.2616395152347e-05,4.2862049621908e-05,-0.0010924129598011,-5.9420582241727e-05,-0.00026266626690486,0.0012247180682335,14.416131019592,92.228553771973,15.116059303284
-0.0016515194517899,0.0015203870823298,-0.00019083372745061,-3.1158517620688e-06,2.4560069908022e-06,-1.1329258531847e-06,7.744082396142e-06,1.2039801103048e-06,-5.3688425378043e-07,338,-1.3763724856367e-05,7.5227419418038e-06,-1.0826998323077e-06,1.9853871668302e-05,2.4137304356237e-06,-6.090146811935e-06,-1.6880536600174e-05,9.9763632528376e-06,-2.2158080852983e-06,2.7598922961016e-05,0,-6.6270399805491e-06,-3.6416905268667e-06,0.00018892361467709,-8.7148142552668e-05,0.00083173786010473,9.2613854638827e-05,0.00019474042549532,0.0013954259962255,94.306945800781,24.622829437256,20
-8.1299802875217e-07,-1.2809352843213e-07,1.7776622791306e-07,-5.2186980239415e-08,-6.4092703578431e-08,3.1470410077226e-09,-3.5999330950749e-10,5.1928071803416e-09,1.448587996364e-08,339,0,0,0,0,0,0,-5.2186980239415e-08,-6.4092703578431e-08,3.1470410077226e-09,-3.5999330950749e-10,0,1.448587996364e-08,-6.2102154175675e-06,-4.9302079675716e-06,2.4208007751712e-07,-2.2235241152669e-06,3.9944670618012e-07,-1.0815338634864e-06,1.0658915403124e-05,21.797254562378,5.1696515083313,20
-0.030674977586089,-0.049933212955976,0.0011867995079208,3.0637966534352e-06,-4.5328291076552e-06,-7.9056206820923e-07,-4.0645180556294e-06,-2.0926588933172e-06,6.0771693383455e-07,340,2.1506644065882e-06,-3.4024816146215e-06,-6.6134811943599e-07,-2.7496887465063e-06,-1.5935774850979e-06,5.9902433991816e-07,5.2144672779501e-06,-7.9352899744629e-06,-1.4518994509251e-06,-6.8142112394987e-06,0,1.206739493189e-06,0.00021300333093581,-0.00034867916212732,-6.0812466785326e-05,-0.00033532856976147,-0.0001609737610244,2.4074121735757e-05,0.0010734562078864,25.878046035767,104.20572662354,20
-0.03061213679644,-0.049990629105135,0.0012125885843676,6.4049978322541e-08,-6.8585405297543e-08,4.5164738269949e-08,-1.8858866832707e-07,3.8281081080133e-08,6.3535876799379e-08,341,0,0,0,0,0,0,6.4049978322541e-08,-6.8585405297543e-08,4.5164738269949e-08,-1.8858866832707e-07,0,6.3535876799379e-08,1.4075283398985e-06,-5.2758004075033e-06,3.47421063615e-06,-1.8026213710071e-05,2.9446985446257e-06,1.3679820688861e-06,3.1682930598393e-05,52.210536956787,104.86643218994,0
-0.016769655150542,-0.0059905906104007,0.00016883466604446,9.3689461091407e-06,-2.1500665689357e-06,-5.0200894521254e-07,-4.1026195367755e-06,2.7583256399389e-07,1.3658835865796e-06,342,9.9326660421406e-06,-3.7733429136442e-06,-9.0212764333668e-07,-8.5677294479718e-06,5.9996394715713e-07,-1.3649365941688e-06,1.9303056683156e-05,-5.9204524522718e-06,-1.4042966482479e-06,-1.2671777151262e-05,0,9.3062705032962e-10,0.0011033156714115,-0.00016538973607197,-3.8616072708657e-05,6.7041390956398e-05,2.1217889537992e-05,0.00048769547736833,0.001143171680692,79.402839660645,58.317939758301,14.804476737976
-0.030613134058525,-0.04999680119326,0.0011996445899649,2.4477991137176e-08,-6.2695214500047e-07,1.1716150817985e-07,-4.5376391381973e-07,9.6886004955251e-08,1.5354790056691e-07,343,0,0,0,0,0,0,2.4477991137176e-08,-6.2695214500047e-07,1.1716150817985e-07,-4.5376391381973e-07,0,1.5354790056691e-07,-1.4025040419197e-05,-4.8227088076959e-05,9.0124237061425e-06,-5.0812879262036e-05,7.4527696119424e-06,-4.0965858476783e-06,0.00011496813376067,46.238971710205,104.90392303467,0
-0.030631912508695,-0.05,0.0011983753672087,3.1326478256801e-07,-9.626610806302e-07,1.9519820935147e-09,-5.7284077812451e-07,5.6746208943275e-08,1.6642213738836e-07,344,0,0,0,0,0,0,3.1326478256801e-07,-9.626610806302e-07,1.9519820935147e-09,-5.7284077812451e-07,0,1.6642213738836e-07,1.8723029918609e-05,-7.4050852356169e-05,1.501524687319e-07,-4.9438936288508e-05,4.3650929956366e-06,7.4274418278658e-06,0.00015819472617253,44.556671142578,110,4.6102714538574
-0.030639791722783,-0.05,0.0012072091703898,1.6131665867431e-07,-3.4668320979277e-07,2.8305051172904e-08,-4.7988959018877e-07,1.8508099181794e-08,1.441818622802e-07,345,0,0,0,0,0,0,1.6131665867431e-07,-3.4668320979277e-07,2.8305051172904e-08,-4.7988959018877e-07,0,1.441818622802e-07,2.3479505191235e-06,-2.6667939214829e-05,2.1773116286849e-06,-4.6975607085729e-05,1.4236999370611e-06,1.0298892580384e-06,9.6341727867801e-05,49.231388092041,110,9.5385541915894
-0.030626444092878,-0.049916853287052,0.0012972756360626,3.3184915888376e-11,6.3758341252868e-12,-2.9017880525971e-12,3.1954592997293e-11,-7.6830243402408e-12,-7.8326599043721e-11,346,0,0,0,0,0,0,3.3184915888376e-11,6.3758341252868e-12,-2.9017880525971e-12,3.1954592997293e-11,0,-7.8326599043721e-11,1.7918921746029e-09,4.9044877886821e-10,-2.2321446558439e-10,1.6972519522119e-09,-5.9100187232622e-10,-6.7859166663277e-09,1.0550889496226e-08,95.449066162109,100,11.487544059753
-0.030651859846198,-0.049995338602993,0.0012051798862989,1.5207442662413e-07,-6.4677222903604e-07,-1.3134679631803e-07,-6.0637102370494e-07,-4.6297849927315e-08,2.3784937693657e-07,347,0,0,0,0,0,0,1.5207442662413e-07,-6.4677222903604e-07,-1.3134679631803e-07,-6.0637102370494e-07,0,2.3784937693657e-07,-7.8930680646536e-07,-4.9751709925849e-05,-1.0103599716771e-05,-5.9131264524086e-05,-3.5613730713319e-06,5.8087662944918e-06,0.00012530645247503,46.869358062744,104.84484863281,20
-0.018076389362553,-0.035261347455529,0.00055315942705957,-3.3768845532317e-06,3.3366194943974e-06,1.4025650237075e-06,-9.3676464721398e-07,9.3726525155905e-08,1.9237234740686e-06,348,-8.5777842139205e-08,7.2850338678568e-08,1.3965589229213e-08,1.5239435250269e-08,7.8769468734356e-09,7.0538406888936e-08,-3.462665665907e-06,3.4094675661547e-06,1.4165304827406e-06,-9.2152194406075e-07,0,1.9942618835906e-06,-0.0003976406806165,0.00025666303803057,0.00010788961720827,-0.00020993914938437,7.2097327043004e-06,1.0098398406595e-05,0.00080972183924466,34.420249938965,60,4.8431797027588
-0.029903189053994,-0.051033199652138,0.0011901205356694,-1.5086259713041e-06,2.3850895738088e-06,2.5894792331687e-06,-1.752952741411e-06,-1.3361688591622e-06,6.2410157610052e-07,349,-1.0269901729287e-06,1.6084540288558e-06,4.8106537946813e-06,-2.9774315363143e-06,-1.9489035022188e-06,4.004421709243e-06,-2.5357363374334e-06,3.9936606348264e-06,7.4001794557324e-06,-4.7303356588125e-06,0,4.6285948596313e-06,-0.00026821029413577,0.00018346842875453,0.00019919071024375,-0.00028700466106708,-0.00010278221993556,-0.0001041543289508,0.0012064416869539,8.9037113189697,92.569396972656,20
-0.0306513924566,-0.049959116664473,0.0012480894086644,-4.0020523129329e-09,-1.7196730219369e-09,3.0291880059704e-09,-2.3806196508452e-11,1.4791276022692e-09,1.298303142011e-09,350,0,0,0,0,0,0,-4.0020523129329e-09,-1.7196730219369e-09,3.0291880059704e-09,-2.3806196508452e-11,0,1.298303142011e-09,-4.6520914142352e-07,-1.3228254014899e-07,2.3301446199773e-07,-1.5919020939087e-07,1.137790463284e-07,-5.7489491043218e-08,8.0779830419968e-07,70.150985717773,105.05056762695,20
-0.00087609634038086,0.0012355759802946,-1.0792857859375e-05,-4.0919829496353e-06,2.9848867562011e-06,2.3280210795601e-07,1.6637118636191e-06,1.4922308853358e-06,9.3931171980457e-07,351,-9.722867696461e-06,7.3311044117282e-06,7.1882904978134e-07,7.8411686815727e-06,3.5393743366715e-06,1.8816990148883e-06,-1.3815845488194e-05,1.0314768296444e-05,9.5144826634709e-07,9.5059209213678e-06,0,2.8209652006144e-06,-0.00040066942109954,0.00022960667355393,1.7907854458155e-05,4.2076333766182e-05,0.00011478699117968,-1.3646754219551e-05,0.0012892552397643,93.665939331055,19.799583435059,20
-0.0017435195003615,0.002455285547394,-0.00021185043837967,-4.2408538486049e-06,4.218834281422e-06,-1.9542563269696e-07,1.3750890271169e-05,-7.1310748091985e-07,-4.5501434667311e-07,352,-2.6242893730313e-05,1.6019334109194e-05,-5.0259470706502e-08,4.1120639432082e-05,-1.1845973690464e-06,-1.4877745701769e-05,-3.0486179297781e-05,2.0232733724526e-05,-2.4560121682928e-07,5.4874073063665e-05,0,-1.5332871689993e-05,0.0001961855929472,0.00032452571395554,-1.503274097669e-05,0.0015801659098529,-5.4854421609219e-05,0.00048740401617273,0.0014902997437467,99.07137298584,22.994009017944,15.313416481018
-0.030634827771996,-0.049992363345549,0.0012090416531848,7.6079017265925e-08,-3.9257081652113e-07,-1.1193851317867e-07,-3.2189794389614e-07,-6.4090030229903e-09,1.8473529359017e-07,353,0,0,0,0,0,0,7.6079017265925e-08,-3.9257081652113e-07,-1.1193851317867e-07,-3.2189794389614e-07,0,1.8473529359017e-07,2.3281763450686e-06,-3.019775511701e-05,-8.6106548598974e-06,-2.8285436052013e-05,-4.9300023253771e-07,1.0686351446934e-05,7.413118582128e-05,49.193355560303,100,15.78600692749
-0.00088122433855189,0.00029739315836438,1.5422482852034e-05,-2.6941276563278e-06,1.17360732945e-06,1.1595218964813e-06,-5.8114010266109e-06,8.7001802921144e-07,3.0054001819734e-07,354,-7.4631665240746e-07,2.5799931517149e-06,2.1681552127984e-06,-5.0698292695797e-06,1.6151558691601e-06,5.8161459219871e-06,-3.4405647984645e-06,3.7538139378707e-06,3.3275902681009e-06,-1.0881077832431e-05,0,6.116653966154e-06,-0.00068060531960644,9.027748688077e-05,8.9193992037026e-05,-0.000920395578859,6.6924463785495e-05,-0.0004502462677199,0.0012322047657964,86.676193237305,19.267978668213,15.005988121033
-0.017964763311519,-0.05132668718924,0.00062687753533517,3.8648836246553e-06,-7.4385742162094e-06,1.5340067150479e-06,3.7087224407737e-06,9.0584521713218e-07,1.5753330081892e-06,355,4.239864330301e-06,-2.323253748935e-05,4.1130279690087e-06,1.3750653632541e-06,2.655224219872e-06,-5.614929693555e-06,8.1136183352798e-06,-3.0670343147052e-05,5.6464965759144e-06,5.0747806039776e-06,0,-4.0394598656391e-06,0.00082512214845147,-0.0005721980166315,0.00011800051654215,0.00081310974969135,6.968040131786e-05,0.00064900287026177,0.0013614636406911,7.9122142791748,59.808887481689,16.79817199707
0,0,0,-1.8609482359011e-08,-4.5191757565873e-08,1.1711704712421e-09,-2.2939814375264e-10,-3.8878440272681e-09,5.8325277941818e-09,356,0,0,0,0,0,0,-1.8609482359011e-08,-4.5191757565873e-08,1.1711704712421e-09,-2.2939814375264e-10,0,5.8325277941818e-09,-2.1818651454191e-06,-3.4762890435287e-06,9.0090036249396e-08,-7.680125134761e-07,-2.9906492517447e-07,-3.0171051825038e-07,6.677617569884e-06,17.110908508301,0,4.3562631607056
-0.00044602219151269,0.00010294328670483,5.9047564548981e-05,1.285299478587e-07,-2.1787501109068e-07,4.5202436070463e-07,-6.6121441970676e-06,5.1460991116092e-07,-8.9907394993017e-07,357,2.238361322059e-06,-1.8143518031501e-06,5.8279080603451e-07,-4.716019984569e-06,7.1089312809679e-07,2.47765866251e-06,2.3669955724222e-06,-2.0320728371127e-06,1.0347894776643e-06,-1.1328248088653e-05,0,1.5785643170916e-06,-0.00041603740011504,-1.6759616237745e-05,3.4771104669587e-05,-0.0009345507958786,3.9585377781609e-05,-0.00049508385379111,0.0011133713992206,82.881721496582,14.949818611145,16.450634002686
-0.0015602333026514,0.001498288828787,-2.2518936010263e-06,-2.9440161500958e-06,4.2253647273947e-06,1.3333432693815e-06,8.2075271904771e-06,-2.3084193649358e-08,-1.8484546602035e-06,358,-1.3513169482898e-05,1.5243121037234e-05,9.1026627567928e-07,2.4173477445036e-05,4.2539060007656e-07,-1.0660307962139e-05,-1.6459471762281e-05,1.9465606337433e-05,2.2433899205588e-06,3.2383385974955e-05,0,-1.2508857832496e-05,-2.9440297304804e-05,0.00032502805595344,0.0001025648668755,0.00082837072889311,-1.7757072037968e-06,5.4833663456138e-05,0.0013893732890699,94.622711181641,23.63111114502,0
-0.030612769646642,-0.049936474283537,0.0012754205837166,-3.0169388383948e-10,-1.8309287639522e-13,-3.9763371140209e-10,1.8525969046622e-10,3.0796951611812e-11,-1.188205902592e-10,359,0,0,0,0,0,0,-3.0169388383948e-10,-1.8309287639522e-13,-3.9763371140209e-10,1.8525969046622e-10,0,-1.188205902592e-10,-3.6779613197216e-08,-1.4084067415016e-11,-3.0587208569391e-08,6.7835405706825e-10,2.3689962778317e-09,-2.2712436767964e-08,7.2060437589478e-08,84.296798706055,105.02625274658,0
-0.030616297824142,-0.049995306304644,0.0012009398789046,2.6613529819041e-09,-5.3120078465538e-07,1.6208046133557e-07,-4.1471018731078e-07,-1.1112827016879e-08,2.0416003144839e-07,360,0,0,0,0,0,0,2.6613529819041e-09,-5.3120078465538e-07,1.6208046133557e-07,-4.1471018731078e-07,0,2.0416003144839e-07,-1.178886532142e-05,-4.0861598819645e-05,1.2467727795044e-05,-4.3894368420858e-05,-8.5483284745225e-07,3.7110330221555e-06,9.7195409348053e-05,46.739547729492,100,5.6820478439331
-0.014799093573974,-0.037712896743153,0.00049619970817424,1.6463030524612e-06,2.4831856366406e-06,1.2719862230274e-06,-1.7741692837983e-06,-4.3791309263015e-09,3.3751089337655e-07,361,1.0835171407125e-07,3.6221330915973e-08,-1.1625343454392e-08,-6.6931230952549e-08,-2.6266888731026e-08,-4.1420483118698e-08,1.7546546642499e-06,2.5194257450991e-06,1.2603635727346e-06,-1.8411003293793e-06,0,2.9609032716886e-07,0.0001387335806916,0.00019101427974158,9.7845094079033e-05,-0.00012437967594374,-3.3685622510014e-07,3.8057260762013e-05,0.00073893660230122,30.55850982666,54.868919372559,0
-9.3985745394396e-05,0.0010322693921695,-6.677569401638e-05,3.3257756088093e-06,5.1314378584696e-06,1.3140975507467e-06,2.9982271601769e-06,4.0536539393435e-07,-1.882811652841e-06,362,8.5845637026236e-07,1.07117755151e-05,2.1565884544663e-06,5.7832764179311e-06,1.8469857098079e-07,-6.6417327881934e-06,4.1835085759746e-06,1.5842948432392e-05,3.4706654787337e-06,8.7822668152151e-06,0,-8.5245842750445e-06,0.00051205145737833,0.00039472598911305,0.00010108442698051,0.00048685542286814,3.1181953379565e-05,0.00011139089878984,0.0011859791875417,93.271087646484,11.245254516602,16.308088302612
-0.017945537981535,-0.051060582153564,0.00078849207679767,3.5615199321255e-06,-9.6940467153789e-06,-4.1909412365269e-07,5.8755933849247e-06,-1.1157865952161e-07,1.9979152757437e-06,363,-8.4544468987054e-08,-3.4312459626644e-05,-9.403079730163e-07,7.8502980965049e-06,-5.522902460765e-07,-7.7657536275178e-06,3.4898054646047e-06,-4.4007792157271e-05,-1.3595125008318e-06,1.3713086626357e-05,0,-5.7678634981676e-06,0.00093367625974776,-0.00074569590118299,-3.2238009511746e-05,0.0011116819099631,-8.5829738093546e-06,0.00081339897848762,0.0014428537177724,7.8077702522278,59.967826843262,6.3238410949707
-7.772727806076e-06,-1.6904409445926e-07,9.1573896578944e-07,-4.604392326795e-07,-3.6351312509067e-07,1.280428013339e-08,2.3735655240095e-08,9.0216350391256e-09,1.6776729413046e-07,364,0,0,0,0,0,0,-4.604392326795e-07,-3.6351312509067e-07,1.280428013339e-08,2.3735655240095e-08,0,1.6776729413046e-07,-5.0933957320092e-05,-2.7962548083898e-05,9.8494462564535e-07,-1.3689735172431e-05,6.9397192608659e-07,-2.6103783347109e-06,6.9137445536668e-05,42.956787109375,10,15.555728912354
-0.030614480883729,-0.049934985929425,0.0012770525583599,1.3184931954521e-10,4.2079549365459e-11,-2.9295363444071e-10,1.1453975587886e-10,8.0814465739668e-12,-2.7810720737304e-10,365,0,0,0,0,0,0,1.3184931954521e-10,4.2079549365459e-11,-2.9295363444071e-10,1.1453975587886e-10,0,-2.7810720737304e-10,8.3123631218065e-09,3.2368884127276e-09,-2.2534894956978e-08,6.9808582243947e-09,6.2164973645899e-10,-2.3222754333443e-08,5.4970812220683e-08,84.975280761719,100,5.2923412322998
-0.010727617889066,-0.0070106574260353,0.00014078846351014,-8.3608642252663e-07,1.9130932861745e-06,3.0919848900411e-07,-5.9019254498982e-06,-1.3750645814957e-07,1.9245484233386e-06,366,3.7719059197822e-07,3.891242248806e-06,2.1755006018733e-07,-6.2951149242342e-06,-5.7679224292946e-07,5.917924332256e-06,-4.6041201660061e-07,5.8053317719321e-06,5.2684783812061e-07,-1.2195507179072e-05,0,7.8424557465864e-06,-0.00034201415456471,0.00014716102201342,2.3784499154162e-05,-0.00073169407974714,-1.0577419857659e-05,-0.00012965762795969,0.0011708125634759,77.431259155273,48.417602539062,14.345621109009
-0.030665287786211,-0.049982734183855,0.0011785425029141,1.7034263431384e-06,-3.6591855892816e-06,-5.4931244366113e-07,-2.1818699322996e-06,-3.8096307240681e-07,5.8189671070068e-07,367,1.3049303249144e-07,-3.0532235504804e-07,-4.5266955645268e-08,-2.2325681424355e-07,-3.3607095020538e-08,9.2763781752114e-08,1.8339192875861e-06,-3.9645080342599e-06,-5.9457926487347e-07,-2.4051266228393e-06,0,6.7466045679265e-07,0.00013700124494561,-0.00028147581456013,-4.2254803358548e-05,-0.00016186769931885,-2.9304851723601e-05,5.0729734758097e-05,0.0006737880612732,32.797904968262,105.43301391602,20
-0.017372277922852,-0.045802665451859,0.00068786582157724,7.0332362992275e-06,-1.5613852573152e-06,1.0862414437758e-06,-3.0658775899001e-06,-1.0687864590185e-06,-1.5184571989298e-06,368,6.5570971051941e-06,-2.0415859320566e-06,4.8703922015789e-07,-3.3553070494152e-06,3.9376767704193e-07,-3.2017900557789e-06,1.3590999775928e-05,-3.6014262764917e-06,1.5731779921524e-06,-6.4218576715903e-06,0,-4.7202405939404e-06,0.00068230095630967,-0.00012010655825502,8.3557034136597e-05,-9.4553958238611e-05,-8.2214343001427e-05,2.4478379528337e-05,0.0010657453029431,17.74126625061,58.883205413818,0
-0.030614302503316,-0.049917294824983,0.001297233579388,6.3816690108555e-13,9.5418219016015e-13,-4.7078016902935e-11,2.9204150373043e-11,-1.0260518814597e-11,-4.3869487100014e-11,369,0,0,0,0,0,0,6.3816690108555e-13,9.5418219016015e-13,-4.7078016902935e-11,2.9204150373043e-11,0,-4.3869487100014e-11,-7.6017003602528e-10,7.3398630012319e-11,-3.6213859156104e-09,1.4372133079714e-09,-7.8927067804594e-10,-4.1838357284175e-09,1.0147700677845e-08,95.427055358887,100,5.199903011322
-0.011506062485862,-0.034649359435929,0.00039333192765554,2.4028840570625e-06,3.1830165658026e-06,-5.230525574079e-07,-7.9466508346904e-07,1.8527364279671e-07,1.3897682926765e-07,370,1.2925927898875e-07,7.2677167551551e-08,1.0040343833049e-08,-6.6096242858627e-08,-2.4309071592668e-08,-6.3163036130123e-08,2.532130597051e-06,3.2557108190154e-06,-5.1301008928649e-07,-8.6074842614239e-07,0,7.5813631952555e-08,0.00028563699301603,0.00024484742813866,-4.02348121083e-05,3.96716745136e-05,1.425181867667e-05,0.00011149028318565,0.00073017817494522,35.588069915771,50.000076293945,15.291377067566
-5.5921644754956e-06,-8.9306762531328e-07,-1.6319578817823e-06,-4.7651323012474e-07,-5.2981092349289e-07,1.8319945007296e-09,-2.3262967820354e-08,-3.0990068372999e-08,2.1277959683861e-07,371,0,0,0,0,0,0,-4.7651323012474e-07,-5.2981092349289e-07,1.8319945007296e-09,-2.3262967820354e-08,0,2.1277959683861e-07,-5.3212360073432e-05,-4.075468642253e-05,1.4092265390228e-07,-1.8346955280786e-05,-2.3838514133076e-06,-1.8983492240484e-07,9.1764826362465e-05,46.306270599365,4.9898495674133,0
-5.1493915700898e-07,-5.5306613076459e-08,-3.7026556944949e-08,-8.8594599499805e-09,-1.9604799867476e-08,-6.4672902397789e-10,-3.8218481601783e-09,2.8551580931678e-10,5.2823408607128e-09,372,0,0,0,0,0,0,-8.8594599499805e-09,-1.9604799867476e-08,-6.4672902397789e-10,-3.8218481601783e-09,0,5.2823408607128e-09,-1.1083604143896e-06,-1.5080615282674e-06,-4.9748386459837e-08,-7.2085181517405e-07,2.1962754562829e-08,-2.0529582797815e-08,2.9007707062675e-06,5.8314332962036,10,3.8646914958954
0,0,0,-1.7940994075024e-09,-2.2062924898491e-08,1.3828180017161e-10,-8.6124970256052e-09,-1.0117124327162e-09,2.8454998556913e-09,373,0,0,0,0,0,0,-1.7940994075024e-09,-2.2062924898491e-08,1.3828180017161e-10,-8.6124970256052e-09,0,2.8454998556913e-09,-5.7422475696651e-07,-1.6971480691147e-06,1.0637061551662e-08,-1.098716881436e-06,-7.7824033285865e-08,-2.1733250595161e-07,3.1158891056589e-06,4.6915998458862,0,6.7920708656311
0,0,0,-7.8115105105685e-09,-3.0678405371224e-08,-2.8550542822609e-10,-3.4926643409852e-09,-8.0726374445464e-10,3.6109581424043e-09,374,0,0,0,0,0,0,-7.8115105105685e-09,-3.0678405371224e-08,-2.8550542822609e-10,-3.4926643409852e-09,0,3.6109581424043e-09,-1.0447248494177e-06,-2.359877336248e-06,-2.1961956017391e-08,-7.1250591329595e-07,-6.2097211111895e-08,-1.6607341457368e-07,4.3082150430266e-06,10.381078720093,0,5.1746640205383
-5.383675341209e-07,-2.9051845762567e-08,-1.0504586571316e-08,-1.2686230289624e-08,-2.2427416843186e-08,-6.8516363117883e-11,-3.4241236873504e-09,-3.8046395023363e-10,5.9042360794502e-09,375,0,0,0,0,0,0,-1.2686230289624e-08,-2.2427416843186e-08,-6.8516363117883e-11,-3.4241236873504e-09,0,5.9042360794502e-09,-1.5646783625205e-06,-1.7251859110143e-06,-5.2704894706064e-09,-8.5220862388411e-07,-2.9266457710279e-08,-1.3464248797637e-07,3.3576389690388e-06,6.3227143287659,10,9.2317562103271
-3.936077600352e-07,-4.0797512779009e-08,-6.3271678173924e-08,-3.0239817447245e-08,-3.5718255956999e-08,-1.9543600174701e-09,8.2928816292067e-10,-2.877160859679e-09,7.9115105330285e-09,376,0,0,0,0,0,0,-3.0239817447245e-08,-3.5718255956999e-08,-1.9543600174701e-09,8.2928816292067e-10,0,7.9115105330285e-09,-3.5664678085167e-06,-2.7475581505384e-06,-1.5033538595924e-07,-1.1765366077347e-06,-2.2132006612915e-07,-6.3175027157256e-07,5.9985802848793e-06,13.01513671875,5.0370941162109,0
-6.4321587357335e-07,-1.7932107240591e-08,-2.9558873670323e-08,-2.8611952796737e-08,-3.0963461539793e-08,-2.8585523026423e-09,4.1375624165534e-10,-2.5464533394197e-09,8.7949465676734e-09,377,0,0,0,0,0,0,-2.8611952796737e-08,-3.0963461539793e-08,-2.8585523026423e-09,4.1375624165534e-10,0,8.7949465676734e-09,-3.3203377144072e-06,-2.3818047338302e-06,-2.1988863866479e-07,-1.0875908653001e-06,-1.9588102610921e-07,-4.4288391714483e-07,5.2300765421078e-06,11.538032531738,10,4.9542531967163
-0.030630271434339,-0.049994783213637,0.0012089431147269,1.3344458987801e-07,-1.5711959133107e-07,-6.1249753585892e-09,-3.4822285551202e-07,-5.6657424527128e-08,1.1987843713272e-07,378,0,0,0,0,0,0,1.3344458987801e-07,-1.5711959133107e-07,-6.1249753585892e-09,-3.4822285551202e-07,0,1.1987843713272e-07,4.7899783463111e-06,-1.2086122410082e-05,-4.7115195066071e-07,-3.2261363606768e-05,-4.3582634251637e-06,3.7464281351349e-06,6.1292747171557e-05,50.147827148438,110,4.6213965415955
-0.030651629360616,-0.0499788833454,0.0012255905455085,-4.41647325443e-09,-1.9735284261733e-08,-1.1498781931023e-08,-1.0630701505859e-08,1.8824109930443e-08,1.4213886299598e-08,379,0,0,0,0,0,0,-4.41647325443e-09,-1.9735284261733e-08,-1.1498781931023e-08,-1.0630701505859e-08,0,1.4213886299598e-08,-3.8780304614987e-07,-1.5180987893641e-06,-8.8452168700175e-07,-8.6582060395213e-07,1.4480084561879e-06,1.0453015349292e-06,5.2844864993405e-06,58.364772796631,105.27436065674,20
-0.017982930821489,-0.036582283750037,0.00059754494449461,-2.5579932686966e-06,3.93048346692e-06,-1.6514175288385e-06,-1.047517289386e-06,-1.3365751383177e-07,7.1620061023413e-07,380,-2.8793144396942e-07,2.4484008505453e-07,-8.3107175823202e-08,1.0759566720145e-07,5.0791331340706e-08,1.8033577676797e-07,-2.845965335007e-06,4.1752907422919e-06,-1.7345290743257e-06,-9.3988154747229e-07,0,8.9653693463082e-07,-0.00036345967150638,0.00030234488207077,-0.00012703211760296,-0.00024726921155941,-1.0281347217828e-05,-0.00011159860389633,0.00086210305981514,32.66898727417,60.000122070312,15.918773651123
-0.011615168886062,-0.038813113490966,0.00045678214433426,4.3644821030886e-06,2.2935893091101e-06,-4.2951784655627e-07,-1.8866690121322e-06,-3.0921648615513e-07,-3.6890174109154e-07,381,2.3387622043835e-06,-1.8347643077497e-08,-3.8340729060856e-08,-1.2723501802766e-06,1.1740517450982e-07,-1.0664120241069e-06,6.7032713934604e-06,2.2758330924566e-06,-4.6787080304472e-07,-3.1590471785205e-06,0,-1.4353128650751e-06,0.00045739735503748,0.00017642994685462,-3.3039834350483e-05,-2.3460423056433e-05,-2.3785883550395e-05,9.329090548516e-05,0.00089508114301563,29.1708984375,50.102695465088,14.608428955078
0,0,0,-8.2045412301719e-08,-7.1940492482687e-07,-1.2936569242789e-08,-1.4023745705491e-07,1.1647633286865e-07,3.7568361150569e-08,382,0,0,0,0,0,0,-8.2045412301719e-08,-7.1940492482687e-07,-1.2936569242789e-08,-1.4023745705491e-07,0,3.7568361150569e-08,-1.6967791804328e-05,-5.5338840371298e-05,-9.9512071098379e-07,-2.1444102939189e-05,8.9597179129731e-06,-7.7667323079982e-06,0.00010255199939384,50.515235900879,0,16.854206085205
-0.030635091257775,-0.049909136353845,0.0013057482787324,7.6735006085241e-12,-4.3213387399934e-12,2.2783846298608e-11,2.4805759622007e-11,-1.6777670232601e-11,-5.16802290715e-11,383,0,0,0,0,0,0,7.6735006085241e-12,-4.3213387399934e-12,2.2783846298608e-11,2.4805759622007e-11,0,-5.16802290715e-11,-5.1747892478484e-10,-3.3241067230718e-10,1.7526035614313e-09,8.0038715317536e-10,-1.2905900178924e-09,-5.0831504386328e-09,7.217166606845e-09,100,104.90213012695,11.667399406433
-0.00077116087006521,0.00086027250499596,-0.0001141001836499,6.2166353381835e-07,4.0573640974812e-06,1.7396119156468e-06,7.7450212488648e-07,-2.2177203899533e-06,-4.7099358329237e-07,384,1.028280626052e-06,5.5078298558851e-06,3.4173632658991e-06,2.2686432541253e-07,-3.4599876515943e-06,-1.2551449514645e-06,1.6494445308431e-06,9.5653293728248e-06,5.1571608096184e-06,1.0018168947159e-06,0,-1.7260893501466e-06,0.00010119558387521,0.00031210493057548,0.0001338163012036,0.00011295239857276,-0.00017059387615026,1.7145036405152e-05,0.0011795809174076,91.631484985352,18.491245269775,0
-2.8758339006744e-06,-3.4346611880945e-07,7.9734692245979e-07,-2.4466049570616e-07,-2.5359165194637e-07,1.933988462592e-08,1.1050999772742e-08,1.7949734678405e-08,7.2230892625186e-08,385,0,0,0,0,0,0,-2.4466049570616e-07,-2.5359165194637e-07,1.933988462592e-08,1.1050999772742e-08,0,7.2230892625186e-08,-2.8130342168256e-05,-1.9507050149721e-05,1.4876834327631e-06,-8.4602271314179e-06,1.3807488214158e-06,-3.7540815273838e-06,4.4243282814352e-05,37.694179534912,5.1831703186035,20
-0.030500724516026,-0.05035866555079,0.0011733386601614,7.1699719529485e-06,3.2420043711488e-06,-1.4426746521522e-07,-9.6089027019094e-08,1.4003748564105e-06,-2.1674890235987e-06,386,1.1734171770744e-05,7.2238533346993e-06,-5.4233808737031e-08,-2.6682840529067e-06,2.8123889860322e-06,-9.0658877178378e-06,1.8903636960303e-05,1.0466252017353e-05,-1.9876385510765e-07,-2.7638951837283e-06,0,-1.1233347874244e-05,0.00083459749074589,0.00024938495162683,-1.1097497324247e-05,0.00027566972305607,0.0001077211428008,0.00011633126178072,0.0012620293309733,12.640484809875,97.602340698242,0
-3.2027396293794e-05,-1.3508863091948e-05,3.2480969036868e-05,-6.6556614921192e-07,-3.8836092705982e-06,1.9425473234837e-06,-2.225764236348e-06,2.2661370059457e-06,8.6426398169822e-08,387,-2.5130479493223e-07,-1.0076132014683e-06,4.786531311345e-07,-1.164063246733e-07,5.7789225025217e-07,3.6771111960553e-07,-9.1686946132851e-07,-4.8912213363153e-06,2.4211985523495e-06,-2.3421712069096e-06,0,4.5413668084794e-07,-0.00021301877998112,-0.0002987391746614,0.00014942671719105,-0.00033303401745313,0.0001743182312266,-0.00015517319941329,0.00086848024688776,71.993698120117,5.6338038444519,20
-0.030791331244248,-0.050889371777618,0.0010064727867617,4.2825258982409e-06,4.1102821564766e-06,6.003766178194e-07,-1.2898822702046e-08,-1.0659161083626e-06,-7.0412384109916e-07,388,4.602947446914e-06,6.9951336237522e-06,5.7668389702611e-07,-6.9515809220066e-07,-1.3391585063477e-06,-3.9077893547133e-06,8.8850798637714e-06,1.1105529901292e-05,1.1771325670691e-06,-7.0767523345285e-07,0,-4.6119013958789e-06,0.00053512717877467,0.0003161755504982,4.6182816755339e-05,0.00020470989254829,-8.1993546797123e-05,0.00015153873728697,0.0011660821946498,9.8772125244141,102.11684417725,15.663638114929
-0.030377325683119,-0.050576964208968,0.0011356749347258,1.3924208395643e-06,3.2584794131622e-06,-4.6637408470118e-07,-1.0654089151729e-06,-2.8470867772789e-06,2.5195434989299e-08,389,1.1151413705472e-06,3.2279069519529e-06,-1.2203449403009e-06,-1.1765081401949e-06,-2.8169480740756e-06,6.1366769647688e-08,2.5073724991017e-06,6.4864638565048e-06,-1.6866615085494e-06,-2.241740137677e-06,0,8.6574997955997e-08,0.00012742895069999,0.00025065226255094,-3.5874929592398e-05,-6.1634876587485e-05,-0.0002190066751753,2.225776573268e-05,0.0011110439051451,12.227029800415,97.077728271484,20
-0.0073929138748615,0.0004955294160798,-9.5240983967331e-05,2.043957189852e-06,-4.7501980937176e-06,-2.6796753393348e-06,2.9669262177709e-06,-2.2809447529379e-06,-2.0995158243438e-06,390,2.8929801167734e-06,-1.6058585549569e-05,-6.3345910520317e-06,6.2378782581786e-06,-3.8131213100786e-06,-9.130858374952e-06,4.9421807028363e-06,-2.0809525883338e-05,-9.0140534001567e-06,9.1994447951681e-06,0,-1.1230257914725e-05,0.00032519099056241,-0.00036539985336289,-0.00020612887225653,0.00039618860809463,-0.00017545728868753,6.4622971627266e-06,0.0013360443615507,91.458686828613,42.13045501709,20
-0.0044601681869561,0.001481487055949,-4.1348740977042e-05,-3.1589219639949e-06,-2.9256162480333e-07,-5.5665703095281e-07,1.2370841845792e-06,-2.6689925073383e-06,9.4512594075508e-07,391,-6.9850401494206e-06,-6.2893907140703e-07,1.2819456024751e-06,3.2143053276578e-06,-7.8706406927386e-06,3.7707348217628e-06,-1.0144009352555e-05,-9.2244166170345e-07,7.2670828328883e-07,4.4517214251969e-06,0,4.7155760886974e-06,-0.0002993427571531,-2.2504740369487e-05,-4.2819771611755e-05,3.881156196798e-05,-0.0002053071159491,1.6353235519971e-05,0.0013417198444865,93.973175048828,34.840148925781,20
-0.025897257959351,-0.051954529342697,0.00093614821449759,-4.1313173484551e-06,-1.833498862609e-06,-1.0472326572949e-06,5.8688983100276e-06,-5.5766906714723e-07,-8.1995598998007e-07,392,-1.0509085116191e-05,-4.9827461364295e-06,-1.2665078636566e-06,1.6336280887176e-05,-6.3082113226443e-07,-5.8271957709844e-06,-1.4638999234577e-05,-6.8200312140431e-06,-2.3137426701036e-06,2.2203841318723e-05,0,-6.6472171125541e-06,-0.0002648537399816,-0.00014103837404685,-8.055635825345e-05,0.00050439361836322,-4.2897620549787e-05,-1.0133635483519e-05,0.001230507160466,5.7409725189209,76.435722351074,20
-0.030651514472397,-0.049928563216626,0.0012829654945544,-1.1311408993866e-10,-1.5801953215717e-11,2.1036225407953e-10,7.4185704479787e-11,3.9768264356881e-11,-7.3871053555547e-11,393,0,0,0,0,0,0,-1.1311408993866e-10,-1.5801953215717e-11,2.1036225407953e-10,7.4185704479787e-11,0,-7.3871053555547e-11,-1.5208743784575e-08,-1.2155348627474e-09,1.6181711852272e-08,-8.0106729084837e-10,3.0590972582216e-09,-1.2190048678182e-08,3.4742837220957e-08,88.208999633789,105.09922027588,20
-0.030611451478497,-0.049966773875811,0.0012408752907491,-8.5159745463551e-09,1.0521419563618e-09,-2.1428733919158e-09,-3.2659160592683e-09,-2.8616021107817e-09,6.9999029720996e-09,394,0,0,0,0,0,0,-8.5159745463551e-09,1.0521419563618e-09,-2.1428733919158e-09,-3.2659160592683e-09,0,6.9999029720996e-09,-9.309588670383e-07,8.0933996643219e-08,-1.6483641476275e-07,-5.2710821418547e-07,-2.201232392909e-07,2.6257017284283e-07,1.7880024941507e-06,66.398529052734,104.29750823975,0
-1.3381119253324e-05,-2.5585001322857e-07,-1.9314427763097e-06,-9.1950964339379e-07,-6.739646897981e-07,-5.845963924785e-08,5.006082744318e-08,1.8640287146602e-09,3.8454967096071e-07,395,0,0,0,0,0,0,-9.1950964339379e-07,-6.739646897981e-07,-5.845963924785e-08,5.006082744318e-08,0,3.8454967096071e-07,-9.8706461702787e-05,-5.1843437676777e-05,-4.4968953267577e-06,-2.412411779225e-05,1.4338682420463e-07,1.6057932475596e-06,0.00013486746188442,49.890705108643,10,3.2571074962616
-3.2320640136241e-05,-1.1036075946208e-05,-1.7934699512907e-05,-1.9132596543877e-06,-4.380040333112e-06,-1.2071046983177e-06,-1.4791676420616e-06,-7.7856753810947e-07,1.1044917754586e-06,396,-3.0060014362184e-07,-4.4417549972354e-07,-1.0114689353716e-07,3.2741226701703e-08,-3.970199132112e-08,2.6785891692014e-07,-2.2138596908679e-06,-4.8242157825021e-06,-1.3082515675603e-06,-1.4464264754155e-06,0,1.3723506452926e-06,-0.00027917009962544,-0.00033692617947016,-9.2854207562901e-05,-0.00024577840636959,-5.9889810623806e-05,-4.7035374252644e-05,0.00073290237699835,68.91561126709,4.889217376709,0
-0.014740993368388,-0.035212707937766,0.00049179248180307,1.2198941863722e-06,3.0959522199328e-06,-3.4033054050578e-07,-1.0981838131874e-06,-1.7961532706223e-07,-1.5721809540352e-07,397,0,0,0,0,0,0,1.2198941863722e-06,3.0959522199328e-06,-3.4033054050578e-07,-1.0981838131874e-06,0,-1.5721809540352e-07,9.1789491900633e-05,0.00023815017076406,-2.6179272346598e-05,-8.6524200373187e-05,-1.3816563620171e-05,-1.4142222082118e-05,0.00070409016292835,34.86873626709,55.029842376709,20
-0.018068394846522,-0.018093064566326,0.0003692785584019,1.5654852532328e-06,2.8314123020974e-06,-1.6084699559445e-07,-5.7312433050902e-07,1.5408907444329e-07,-3.4064510041385e-07,398,0,0,0,0,0,0,1.5654852532328e-06,2.8314123020974e-06,-1.6084699559445e-07,-5.7312433050902e-07,0,-3.4064510041385e-07,0.00015802093230502,0.00021780094631518,-1.2372845814958e-05,-6.4874972135802e-06,1.1853005726407e-05,1.1395520486049e-05,0.00057815283160951,60.410308837891,60,11.554454803467
-0.01561315064118,-0.041764324435322,0.00058235724037194,2.7343647450697e-06,1.5660783279122e-06,6.9105772074491e-07,-2.6822593038234e-06,-1.1263799976668e-06,-1.4814257584293e-07,399,8.7151427057705e-07,6.483379328518e-07,-5.5566698289813e-08,-1.1519580719017e-06,-3.5441533598032e-07,2.8044380132463e-07,3.6057117750298e-06,2.2146952046601e-06,6.3552075074596e-07,-3.83404889527e-06,0,1.3229998564355e-07,0.0002047951457017,0.00012046756368556,5.3158286211147e-05,-0.00021186824267468,-8.6644615205138e-05,-1.6936186676186e-05,0.00095945642925029,24.284519195557,56.097309112549,0
-0.015835882165803,-0.043343001675238,0.00060466230032998,2.7311273060741e-06,1.5347513896709e-06,9.1548843823689e-08,-3.8588439119833e-06,1.3430586931877e-06,4.4844060928496e-07,400,1.6084358885247e-06,5.9413935081144e-07,-8.4892707690965e-08,-1.6949174130531e-06,4.9385090005807e-07,8.6481524528398e-08,4.3394067392965e-06,2.1292878100693e-06,6.5950241465692e-09,-5.5536099932317e-06,0,5.3492725731099e-07,0.0001708977160466,0.00011805779920546,7.0422187556684e-06,-0.00033602314688089,0.00010331220716828,-4.6935683217892e-06,0.0010015049570757,22.280813217163,56.695964813232,20
-0.019055172698924,-0.048375889219383,0.00069239822305095,2.1384826889762e-06,-3.5047126637305e-06,6.2789303823359e-07,-2.4730662452551e-06,-2.1314955709406e-06,4.7265818806532e-07,401,2.7080410068298e-06,-1.2110968546315e-05,8.1176854688379e-07,-2.6424305861122e-06,-3.2295315847379e-06,-6.5610420717623e-08,4.8508025925796e-06,-1.5614576069693e-05,1.4402546110546e-06,-5.1197356857782e-06,0,4.0700772498498e-07,0.0001724645125243,-0.00026959328182542,4.8299464479507e-05,-0.00018227002087811,-0.00016396119776466,4.432416630039e-05,0.0012621300378491,13.364139556885,61.682678222656,0
-0.014665529084215,-0.039569181391612,0.00052477940577661,3.9404500759636e-06,2.9711208306157e-06,-2.1526701797268e-07,-2.3531290594967e-06,1.8418969356236e-07,-5.6968120892293e-07,402,2.5003440010245e-06,2.3856159654115e-07,1.6503733743829e-07,-1.5615256594557e-06,1.7719855994223e-07,-9.3881834156879e-07,6.440786098946e-06,3.210278018135e-06,-5.0244038087585e-08,-3.9146483659445e-06,0,-1.5084979254575e-06,0.00036182153320167,0.00022854775620121,-1.6559001382514e-05,-0.00012229993875682,1.4168437966336e-05,1.4888357441163e-05,0.00095006644219911,28.197286605835,54.856742858887,20
-0.030651439472213,-0.049969065773362,0.0012367343365709,-5.0110720620038e-09,-5.8050329429329e-09,1.4754650909846e-09,-3.9090166086902e-09,5.2452287852586e-09,4.5580364705126e-09,403,0,0,0,0,0,0,-5.0110720620038e-09,-5.8050329429329e-09,1.4754650909846e-09,-3.9090166086902e-09,0,4.5580364705126e-09,-6.3712393939537e-07,-4.4654099561022e-07,1.1349731469112e-07,-5.5235044298663e-07,4.0347913732758e-07,9.8961332336658e-08,1.861086527208e-06,64.245643615723,105.11814880371,20
-2.7328156231778e-05,-9.0347318911144e-06,1.4215206823025e-05,-1.504016705025e-06,-3.0316186731736e-06,1.0813872336321e-06,-8.8624112918123e-07,6.2627205643777e-07,1.1859694164184e-06,404,0,0,0,0,0,0,-1.504016705025e-06,-3.0316186731736e-06,1.0813872336321e-06,-8.8624112918123e-07,0,1.1859694164184e-06,-0.00018517177064353,-0.00023320143639797,8.3183633356316e-05,-0.0001376505725017,4.8174773572136e-05,2.1750238698273e-05,0.00052890508682423,65.09049987793,5.2083005905151,20
-1.2184442467733e-05,-2.5901097335689e-06,-4.808699871986e-06,-1.2664878980315e-06,-1.3880227346526e-06,-2.0151438319463e-07,-7.937555701244e-08,-1.0926301467731e-07,5.2571782136092e-07,405,0,0,0,0,0,0,-1.2664878980315e-06,-1.3880227346526e-06,-2.0151438319463e-07,-7.937555701244e-08,0,5.2571782136092e-07,-0.00014473824025336,-0.00010677097958866,-1.5501106399587e-05,-5.3421906328822e-05,-8.4048472828701e-06,-6.8762618385633e-06,0.00024515486806118,57.012378692627,3.8790588378906,0
-0.030612162099397,-0.049979391115761,0.0012260939083969,-1.00290176483e-08,7.9339892446467e-09,8.1945515046769e-09,-1.0401987148776e-08,-9.480146728527e-09,1.5392147236926e-08,406,0,0,0,0,0,0,-1.00290176483e-08,7.9339892446467e-09,8.1945515046769e-09,-1.0401987148776e-08,0,1.5392147236926e-08,-1.062166216801e-06,6.1030686497283e-07,6.3035011574438e-07,-1.090856178376e-06,-7.2924205604054e-07,8.9330800513957e-07,4.8859352435742e-06,58.905395507812,104.79801940918,0
-0.014884586992181,-0.023186655692098,0.00035507455916049,1.877568103173e-07,2.7951480875104e-06,1.4851780817279e-07,-6.7780981747379e-08,1.4438089529543e-07,-3.0420040083481e-08,407,0,0,0,0,0,0,1.877568103173e-07,2.7951480875104e-06,1.4851780817279e-07,-6.7780981747379e-08,0,-3.0420040083481e-08,1.9609511667856e-05,0.00021501139134695,1.1424446782522e-05,-4.7241567888641e-08,1.1106222715033e-05,2.826677021642e-06,0.00040065369644552,52.48851776123,55.019100189209,0
-8.8299235518102e-06,-1.4807331158405e-06,-3.4682636281775e-06,-9.9663150012361e-07,-8.7236678615443e-07,-9.9988277783964e-08,6.8498931618107e-09,-6.2094425748239e-08,4.2434866458877e-07,408,0,0,0,0,0,0,-9.9663150012361e-07,-8.7236678615443e-07,-9.9988277783964e-08,6.8498931618107e-09,0,4.2434866458877e-07,-0.00010928509283872,-6.7105137396495e-05,-7.6914059833818e-06,-3.2094216432151e-05,-4.7764942883261e-06,2.107367761478e-08,0.00016039740749505,51.954280853271,4.8363184928894,0
-0.030612808503067,-0.049916709985034,0.0012979571375413,-1.6234468779645e-11,-1.1814551171929e-11,-4.5870117830333e-11,2.1738042303591e-11,-1.1632974008072e-11,-2.3132026609233e-11,409,0,0,0,0,0,0,-1.6234468779645e-11,-1.1814551171929e-11,-4.5870117830333e-11,2.1738042303591e-11,0,-2.3132026609233e-11,-2.2658314302777e-09,-9.0881162860994e-10,-3.5284706023333e-09,6.5513096074047e-10,-8.9484415446708e-10,-2.7964128017845e-09,8.6388369443299e-09,95.969833374023,105.0481338501,0
-0.030612550501151,-0.049926671156233,0.0012866070188383,-7.6061006542577e-11,-3.9505553021723e-11,-1.5980252899817e-10,5.9765598001208e-11,-5.4684531959075e-12,-5.1590958675972e-11,410,0,0,0,0,0,0,-7.6061006542577e-11,-3.9505553021723e-11,-1.5980252899817e-10,5.9765598001208e-11,0,-5.1590958675972e-11,-9.7673678427372e-09,-3.0388886939787e-09,-1.2292502230628e-08,6.8083250678481e-10,-4.2065024583904e-10,-7.8850564683829e-09,2.7408656286979e-08,90.086624145508,104.89604187012,0
-0.00010351731255607,0.00029444627146149,-3.5200863601565e-06,4.6294756568977e-06,3.8728029921423e-06,-6.3145032898798e-07,-1.9468180860957e-06,1.0453505522259e-06,-1.2786930002268e-06,411,3.8895911654812e-06,3.6464622439056e-06,-5.3843722207931e-07,-2.1772228039259e-06,1.1566177105213e-06,-1.7123683615553e-06,8.518944404624e-06,7.5193591906025e-06,-1.1699099166812e-06,-4.1239193939327e-06,0,-2.9910604401161e-06,0.00043711146806378,0.00029790792247248,-4.8573102229845e-05,-6.8757281397253e-05,8.0411580940452e-05,-1.7363044022721e-05,0.0010985546100175,85.40934753418,10.675621032715,20
-0.014399775017385,-0.018318060742372,0.00028448034741352,-9.7032021013944e-07,2.9174222313388e-06,-3.3439136746372e-07,2.8420138663472e-07,-1.4327973181513e-07,4.1953734477843e-07,412,0,0,0,0,0,0,-9.7032021013944e-07,2.9174222313388e-06,-3.3439136746372e-07,2.8420138663472e-07,0,4.1953734477843e-07,-9.001971686032e-05,0.00022441709471837,-2.5722412881824e-05,6.48194443e-06,-1.1021517831933e-05,1.6892402748747e-05,0.00052577751280993,59.785343170166,54.27978515625,0
-0.030630010020717,-0.049915883201786,0.0012982465587189,2.9744424201551e-11,-1.7384799044974e-11,-2.1312683321022e-11,1.8881662353727e-11,-1.2152300107712e-11,-4.4364113698975e-11,413,0,0,0,0,0,0,2.9744424201551e-11,-1.7384799044974e-11,-2.1312683321022e-11,1.8881662353727e-11,0,-4.4364113698975e-11,2.5339156802907e-09,-1.3372922342288e-09,-1.6394371785401e-09,1.6983186150735e-09,-9.3479231597782e-10,-3.1667410812882e-09,7.7084513345366e-09,96.284736633301,110,4.5659999847412
-0.014791357011288,-0.030588241488419,0.00043500505841293,3.9869223163141e-07,3.1061218029137e-06,-3.9575239674219e-08,-2.0483882286079e-07,5.0004084807739e-08,1.2365042431331e-08,414,0,0,0,0,0,0,3.9869223163141e-07,3.1061218029137e-06,-3.9575239674219e-08,-2.0483882286079e-07,0,1.2365042431331e-08,4.256585154099e-05,0.00023893244637798,-3.0442492057092e-06,-3.8596141891796e-06,3.8464680621338e-06,1.2848375448676e-05,0.00055738867784758,41.859573364258,55.105430603027,20
-4.4813039370315e-06,-9.2193414245654e-07,1.3209675581299e-06,-3.6758537529033e-07,-4.6042075210135e-07,3.8395054041391e-08,-2.3164112989498e-08,3.63726004136e-08,1.1825361102786e-07,415,0,0,0,0,0,0,-3.6758537529033e-07,-4.6042075210135e-07,3.8395054041391e-08,-2.3164112989498e-08,0,1.1825361102786e-07,-4.3996714094562e-05,-3.5416980930873e-05,2.9534656954916e-06,-1.7502770840652e-05,2.7978923395077e-06,-6.6244843777782e-06,7.7056249668171e-05,44.085384368896,4.3436131477356,20
-0.014817073903143,-0.026019979617926,0.00038327028734737,5.6802514404313e-07,3.0372040583244e-06,1.7508191705919e-07,-1.9428361979424e-07,-1.3650184196521e-07,-1.7160382402638e-07,416,0,0,0,0,0,0,5.6802514404313e-07,3.0372040583244e-06,1.7508191705919e-07,-1.9428361979424e-07,0,-1.7160382402638e-07,5.5356032246924e-05,0.00023363108140957,1.3467839773784e-05,-3.2831034328736e-06,-1.0500141689631e-05,-1.5385037584232e-06,0.00044666091551012,48.701873779297,55.14342880249,20
-0.00042242497978953,0.00073184630335282,-5.0338059247121e-05,2.7854028001183e-06,4.0805657367427e-06,1.0043650987647e-07,1.2248377200224e-06,1.0123675343445e-06,-2.4583111555012e-07,417,8.3810306285454e-07,5.6252956054338e-06,4.0474502553815e-07,1.7856457883935e-06,1.1980065663869e-06,-2.623748851248e-06,3.6231436641033e-06,9.7057769119543e-06,5.0512227864195e-07,3.0108632657363e-06,0,-2.869597525249e-06,0.00043143921950471,0.00031388967205713,7.7258853751133e-06,0.00031139575180503,7.787442571881e-05,0.00019826737983791,0.0011475331879669,90.192390441895,15.973769187927,20
-2.5882948235188e-05,1.8008376231292e-05,-1.3547194348791e-05,5.2292842014484e-06,1.2792906710706e-06,1.9060180050616e-07,-2.883872048702e-06,2.1813190426763e-06,-1.1924597560209e-06,418,3.0388437514446e-06,6.2753670229073e-07,-2.3209551099865e-07,-2.1736852281321e-06,9.3744155285438e-07,-8.6515852331251e-07,8.2681151201454e-06,1.9068598679221e-06,-4.150530337155e-08,-5.0575466055219e-06,0,-2.057616117898e-06,0.00046876911530712,9.8406974697739e-05,1.4661676962013e-05,-0.00015531982701214,0.00016779377251357,-2.5211189113596e-05,0.0010503074995141,78.55339050293,7.2595844268799,20
-0.030612618141761,-0.049955018995874,0.0012542771891727,-2.5100955429013e-09,3.2645486316065e-10,-3.368386439936e-09,-4.5672721088788e-11,-8.1702060011761e-10,8.4218357360038e-10,419,0,0,0,0,0,0,-2.5100955429013e-09,3.2645486316065e-10,-3.368386439936e-09,-4.5672721088788e-11,0,8.4218357360038e-10,-2.9194492774566e-07,2.5111912550819e-08,-2.5910664922584e-07,-1.0237394145239e-07,-6.2847738470586e-08,-3.4077303399379e-08,6.5749701119956e-07,73.340507507324,104.94946289062,0
-0.024038198455407,-0.051015095858076,0.00077692838608711,-1.443905775614e-06,-2.6849643253621e-06,-1.836059647931e-06,3.9098298037863e-07,-4.2543362645076e-07,1.0207963869312e-06,420,-5.0976740040656e-07,-3.8237427738737e-06,-3.6726340121202e-06,5.8175138884332e-07,7.0884666287667e-07,-7.1983988436766e-08,-1.9527080057262e-06,-6.5088089254947e-06,-5.5088137463459e-06,9.7170277800679e-07,0,9.4887881941531e-07,-0.00011292312168016,-0.00020653571733555,-0.00014123535753315,2.8222167242349e-05,-3.2725663573136e-05,7.6669352361781e-05,0.0012391331865436,8.0338172912598,71.572715759277,0
0,0,0,-1.4478770610569e-08,-7.4528122346578e-08,2.6611737164781e-09,-1.2142030118243e-08,-1.4830819322998e-08,4.9554808813414e-09,421,0,0,0,0,0,0,-1.4478770610569e-08,-7.4528122346578e-08,2.6611737164781e-09,-1.2142030118243e-08,0,4.9554808813414e-09,-2.363673884321e-06,-5.7329324881983e-06,2.0470567049832e-07,-2.1839246156804e-06,-1.1408322556153e-06,-8.6873146186627e-07,1.0513513416093e-05,21.0546875,0,0
-0.00028494030479488,0.00039541948162203,-0.00014949361051951,1.9068703615409e-06,1.7975183871506e-06,-9.3770036787905e-08,-4.376898425548e-06,-1.5937252563456e-06,1.4557516409565e-06,422,4.30985198515e-06,1.1167900941148e-06,-8.9602010327875e-08,-8.3495541106063e-06,-2.1897002615737e-06,4.0397021254563e-06,6.2167718165597e-06,2.9146180752367e-06,-1.8334187991547e-07,-1.2726505852246e-05,0,5.4954576126359e-06,8.8166388019451e-05,0.00013827064516543,-7.2130797529158e-06,-0.00039520044175661,-0.00012259425048812,5.3464947974501e-05,0.0011865201840167,88.089683532715,13.659618377686,0
-0.015259357133607,-0.03490155531901,0.00048449788142393,-1.0794669856831e-06,3.0652854642031e-06,8.3115657584849e-07,-5.2774224633601e-07,-3.61555030677e-07,7.1247268932627e-07,423,0,0,0,0,0,0,-1.0794669856831e-06,3.0652854642031e-06,8.3115657584849e-07,-5.2774224633601e-07,0,7.1247268932627e-07,-0.00013465533790021,0.00023579118955409,6.3935121219115e-05,-9.2214973335047e-05,-2.7811925436693e-05,3.1861755620508e-06,0.00061784878282107,34.864589691162,55.59623336792,0
-0.020789840138397,-0.050541859028072,0.00076228295372161,-5.8743967438503e-07,-5.8858351595223e-06,-1.8999761312706e-06,-1.7020028740049e-06,1.6782954763983e-07,1.7506608493961e-06,424,-5.0620860379938e-07,-1.6430468365385e-05,-3.9858092855682e-06,-2.7883795046413e-06,2.4356441927953e-06,3.2945881084407e-06,-1.0880146780862e-06,-2.2315996837253e-05,-5.8862577672218e-06,-4.4961062995047e-06,0,5.0453392785971e-06,-7.6271226817723e-05,-0.00045275655073249,-0.00014615201009774,-0.00016200685755771,1.2909965203064e-05,0.00010358265962698,0.0013181658844491,9.0403165817261,64.64200592041,0
-2.2500315608861e-05,-5.9224120266778e-06,-9.7300840720661e-06,-1.9464961289528e-06,-2.4797540014392e-06,-6.1658525989303e-07,-2.9918247488764e-07,-2.6180985268181e-07,8.868295870579e-07,425,0,0,0,0,0,0,-1.9464961289528e-06,-2.4797540014392e-06,-6.1658525989303e-07,-2.9918247488764e-07,0,8.868295870579e-07,-0.00022812560704152,-0.00019075030780302,-4.7429635376387e-05,-0.00010140917211343,-2.0139219437063e-05,-1.0177475040695e-05,0.0004390747906722,62.264865875244,4.7842040061951,0
-2.5123133934168e-07,-3.7501795394647e-08,-4.2317915243373e-08,-9.4555998485184e-09,-2.2635449692082e-08,-8.2876139818984e-10,-4.5001144338597e-09,-1.1170468220345e-09,4.5403763366403e-09,426,0,0,0,0,0,0,-9.4555998485184e-09,-2.2635449692082e-08,-8.2876139818984e-10,-4.5001144338597e-09,0,4.5403763366403e-09,-1.270546408294e-06,-1.7411884378524e-06,-6.3750876783834e-08,-8.8935522255101e-07,-8.5926678618038e-08,-1.9393285558947e-07,3.330852071461e-06,6.5546436309814,4.6600584983826,0
-0.030624229100584,-0.049909516963821,0.0013057267954297,1.3477914339163e-11,-5.3619960611779e-12,-8.071239059189e-12,2.182218685008e-11,-1.3914506403133e-11,-4.6039708448645e-11,427,0,0,0,0,0,0,1.3477914339163e-11,-5.3619960611779e-12,-8.071239059189e-12,2.182218685008e-11,0,-4.6039708448645e-11,4.1716991497012e-10,-4.1246123547522e-10,-6.2086454301454e-10,1.0590370311945e-09,-1.0703466463948e-09,-4.1611087610151e-09,6.266368086794e-09,100,105.24053955078,5.7455449104309
-0.030612505731045,-0.049926683030475,0.0012865955398023,-2.5322066126685e-11,3.7160101692166e-12,-1.5790684697193e-10,6.2401501652386e-11,-7.7167751202739e-12,-8.7421431625728e-11,428,0,0,0,0,0,0,-2.5322066126685e-11,3.7160101692166e-12,-1.5790684697193e-10,6.2401501652386e-11,0,-8.7421431625728e-11,-4.852197169362e-09,2.8584693609359e-10,-1.2146680536302e-08,1.8957695828742e-09,-5.9359808617492e-10,-9.6290714385191e-09,2.6463473428226e-08,89.917694091797,100,4.2695341110229
-0.021913819559745,-0.049153024730688,0.00066927852534418,-1.5669049707599e-06,3.0762068108248e-06,-1.6188795360886e-06,-5.2932187714996e-06,-3.5509531833737e-06,1.7537288190057e-06,429,3.3278386944757e-06,1.130571612699e-05,-3.3375594033224e-06,-1.1513913111398e-05,-6.3459525327718e-06,8.186074416922e-06,1.7559011946745e-06,1.4384802663916e-05,-4.9551750711281e-06,-1.6802061627272e-05,0,9.939765509344e-06,-0.00041513085870771,0.00023663129314037,-0.00012452919508374,-0.00070177038184154,-0.0002731502448749,-0.00015969749026421,0.0012825349261532,11.989132881165,66.979560852051,0
-0.01366477177735,-0.009714040172469,0.00023979527036704,1.2004874027507e-06,2.2381027384696e-06,1.8367212254336e-06,-4.2515889915121e-06,-4.7606998396281e-07,1.084227009056e-06,430,1.3299220262703e-06,2.3129459146727e-06,1.8946974134002e-06,-3.3613175350776e-06,-5.0234630508746e-07,2.0313955088073e-06,2.5297259983413e-06,4.5515364770565e-06,3.7314725283828e-06,-7.6122063629859e-06,0,3.1156057849391e-06,-2.1128348617564e-05,0.00017216174911305,0.00014128624811028,-0.00044051884048393,-3.6620767997139e-05,-3.0071455824851e-05,0.0010865608059538,73.320007324219,53.331039428711,20
-0.00030329864667095,3.2794866669806e-05,-0.00010644229560731,-2.036103988156e-06,-3.9553405737419e-06,-1.5861156028742e-06,-6.341314528784e-06,-5.1355943104337e-06,7.7788262460262e-07,431,7.8542265267836e-07,-8.6340796780718e-06,-2.4248219069401e-06,-6.3024408595114e-06,-6.6394386592128e-06,5.517018206833e-06,-1.2503193714896e-06,-1.2589263205735e-05,-4.0108041276313e-06,-1.2644154386914e-05,0,6.2949378660665e-06,-0.00059505814672377,-0.00030425696721092,-0.00012200889252879,-0.00092622818831054,-0.00039504571618721,-0.00037859763805003,0.0011700894948848,80.555938720703,13.08802318573,0
-3.2479765420099e-07,-2.4113421225454e-08,7.7336225462062e-08,-1.4666843774339e-08,-2.5103566936551e-08,2.7579490646327e-09,-2.3546343829503e-09,2.408561658597e-09,5.743417387851e-09,432,0,0,0,0,0,0,-1.4666843774339e-08,-2.5103566936551e-08,2.7579490646327e-09,-2.3546343829503e-09,0,5.743417387851e-09,-1.7788761039553e-06,-1.9310436105039e-06,2.1214992804867e-07,-8.317830738484e-07,1.8527397373823e-07,-2.0885601455599e-07,3.870079209823e-06,9.8424777984619,5.1130437850952,20
-0.005030332383496,-0.0004693041253279,0.0001552139396031,2.4692277121317e-06,2.7884112748956e-06,-5.0978093115188e-06,-1.1152109520282e-05,-3.0963438620798e-06,-1.2397503202711e-06,433,2.0493487507163e-05,1.4004107922976e-05,-1.4674803381482e-05,-3.1612471437544e-05,-1.0051683072029e-05,1.1118983930381e-05,2.2957693598783e-05,1.6800310365191e-05,-1.9771100870348e-05,-4.2759722475971e-05,0,9.8793967487662e-06,-0.00038251895262957,0.00021449317499197,-0.00039213917780914,-0.0014303141243537,-0.00023818029708306,-0.0006678249551221,0.0014648020429679,88.985809326172,36.081283569336,20
-0.015411107692571,-0.01277774959681,0.00025261930913837,1.3773307771946e-06,3.4969210989797e-06,5.0299040759886e-07,-1.5043653189256e-06,1.5329065146599e-07,1.0242991685017e-06,434,9.1775489950322e-07,6.4545701745182e-07,1.0211754605509e-07,-8.167035411238e-07,-2.3410903537023e-07,-1.0105135837942e-07,2.294971232762e-06,4.1425432630318e-06,6.0513386192595e-07,-2.3209541827368e-06,0,9.2324757674551e-07,0.00015771378825175,0.00026899393069075,3.8691569815297e-05,-6.3955142219045e-05,1.1791588574307e-05,0.00013055751065998,0.00088931549455444,68.635391235352,56.066909790039,20
-1.1801865358398e-06,3.2576495438598e-08,-2.9643409826035e-07,-8.6855232363469e-08,-3.7901390207783e-08,-1.7319986727716e-08,2.0469063544777e-08,-4.224905140608e-09,2.7510275355714e-08,435,0,0,0,0,0,0,-8.6855232363469e-08,-3.7901390207783e-08,-1.7319986727716e-08,2.0469063544777e-08,0,2.7510275355714e-08,-8.9240117277464e-06,-2.9154915544449e-06,-1.3323066713628e-06,-6.682966578813e-07,-3.249927031237e-07,-1.2666498011691e-07,1.0369900239725e-05,21.73828125,10,0
-0.013111243448338,-0.0047394382431497,0.00013871954435219,3.7920424031574e-06,7.4834954473039e-07,6.9658081955881e-07,-5.1342861290966e-06,-9.2886934927187e-07,8.2564420202036e-07,436,4.510287921155e-06,8.5237401211414e-07,-1.406331454673e-07,-6.805834877733e-06,-5.3519245732548e-07,2.2955469565779e-06,8.3020230761454e-06,1.602495214966e-06,5.5596094189175e-07,-1.1939808040182e-05,0,3.1211854401175e-06,0.00026189175078602,5.7565349594645e-05,5.3583139966063e-05,-0.00042474890554121,-7.1451488405529e-05,3.3707273775478e-05,0.0011755188297932,81.244537353516,52.608932495117,20
-2.5543023228311e-07,-1.1980100362517e-07,-2.7201872115717e-08,-4.6122278636231e-09,-1.8049068491099e-08,-1.8634359271773e-10,-1.0541597417685e-08,-6.735521540446e-10,4.9824870932505e-09,437,0,0,0,0,0,0,-4.6122278636231e-09,-1.8049068491099e-08,-1.8634359271773e-10,-1.0541597417685e-08,0,4.9824870932505e-09,-9.4159473112818e-07,-1.3883898839307e-06,-1.4334122516748e-08,-1.3977000814406e-06,-5.1811704157277e-08,-2.0353973444559e-07,2.7225852979115e-06,0,5.2134437561035,5.1896271705627
-0.028529206650412,-0.053117203036736,0.00087533967224043,-3.746364743669e-06,4.2893428675901e-06,4.7647753412651e-07,1.2575777093504e-05,1.5257479736587e-06,-3.9309665817753e-06,438,-2.3088920157312e-05,1.5396255058004e-05,1.9241695622246e-06,4.4008140893085e-05,5.0562026908154e-06,-2.0919220735773e-05,-2.6838136878112e-05,1.9678933944164e-05,2.400052243976e-06,5.6586731728537e-05,0,-2.4850149082365e-05,-5.5792628941593e-06,0.00032994945135308,3.6652118009731e-05,0.0012499701091961,0.00011736522874298,-1.9779404286953e-05,0.0015171037436042,0.67844843864441,85.962699890137,20
-0.030608698851853,-0.049994793214565,0.0011892737372657,-2.3413804980942e-08,-7.1853622809125e-07,7.1894537605598e-07,-2.4890805942428e-07,1.6160087207891e-07,1.4030803528202e-07,439,0,0,0,0,0,0,-2.3413804980942e-08,-7.1853622809125e-07,7.1894537605598e-07,-2.4890805942428e-07,0,1.4030803528202e-07,-9.417244371026e-06,-5.5272017545481e-05,5.5303490465845e-05,-2.6762956251283e-05,1.2430836313762e-05,3.1767433415098e-06,0.00014589861842169,42.3046875,100,0
-0.0028276167040778,0.00032051579152456,9.4747165476999e-05,5.0632781306341e-07,2.938176306174e-08,-3.3315741247044e-06,-9.4978594873516e-06,1.3933895723228e-06,6.3484831314591e-07,440,1.3733679759992e-05,1.8794389916084e-06,-9.1220273679528e-06,-2.4148303494431e-05,5.8081382157691e-08,1.0414623734439e-05,1.4239023140798e-05,1.9133794417323e-06,-1.2453467866286e-05,-3.3645306222135e-05,0,1.1049599720194e-05,-0.00044316805444564,2.2601356201337e-06,-0.00025627493266957,-0.0012127209237083,0.0001071838132556,-0.0004332818621316,0.001309368917792,89.81298828125,29.079410552979,19.999883651733
-0.030664854469328,-0.05,0.0011851072352813,2.2566356964187e-06,-1.5651854106074e-06,7.6502212836427e-07,-2.5594800949581e-06,-4.7879823961209e-07,1.9614959396807e-07,441,0,0,0,0,0,0,2.2566356964187e-06,-1.5651854106074e-06,7.6502212836427e-07,-2.5594800949581e-06,0,1.9614959396807e-07,0.00016743189176848,-0.00012039887773903,5.8847856028021e-05,-0.00020303855372204,-3.6830633816315e-05,8.9329608107376e-06,0.00040894611487771,37.937408447266,110,20
-0.030604225399967,-0.049970750744821,0.0011592254654295,-1.8401334699691e-06,-4.3033803605435e-06,2.2024116835284e-06,-9.113258206016e-07,1.1160621890516e-06,7.2998555804926e-07,442,-1.7348888462404e-07,-2.3787671462131e-07,1.1734598412712e-07,3.1430485237964e-08,9.0867608835296e-08,1.4205839938608e-07,-2.0136224214503e-06,-4.5412571786149e-06,2.3197574306474e-06,-8.7989543058072e-07,0,8.7204411950964e-07,-0.0002581722130277,-0.00033102925850335,0.00016941628334834,-0.00018672547076867,8.5850937619357e-05,-6.0470749333986e-05,0.00072181190351141,31.092618942261,100,0
-0.029179559589253,-0.052693865399191,0.0012777876175681,-3.0690351087475e-06,4.9781065017112e-06,-2.2640679900917e-06,9.7446913754546e-06,2.6745616212489e-09,-1.6848040099804e-06,443,-1.6761557990379e-05,1.7478160801134e-05,-5.2648342064066e-06,2.7912534913237e-05,8.2125179227673e-07,-1.1150976922859e-05,-1.9833824942463e-05,2.245190536972e-05,-7.5287904448438e-06,3.7660225299084e-05,0,-1.2835548099894e-05,5.1854160292115e-05,0.0003829312693624,-0.0001741590761609,0.0010375254283077,2.0573550932677e-07,0.0001583334755819,0.0013972456529291,1.2488679885864,88.321449279785,0
-0.013318626579614,-0.045171975170618,0.00063236956781406,8.2410324764917e-06,-3.743295112926e-06,-6.2413084272554e-07,-1.6538419476916e-06,-3.8185471740288e-08,-2.7097438393608e-06,444,9.3419472825505e-06,-5.1114719553375e-06,-6.2882203488545e-07,-3.6578994823941e-06,9.3031644104298e-07,-5.6840478001564e-06,1.7584768849525e-05,-8.8524530091563e-06,-1.2531264098197e-06,-5.3135380638123e-06,0,-8.3937840962734e-06,0.00085762442258239,-0.00028794577791739,-4.8010064825042e-05,9.6480236106753e-05,-2.9373439800222e-06,1.5257013670666e-05,0.0010171821973675,18.743898391724,52.357006072998,0
-0.030647225312536,-0.05,0.0011648696353647,5.1222654096933e-06,-2.7438169572255e-06,-2.0166091289338e-06,-4.8479565171554e-06,4.7419273647011e-07,-1.2742720264527e-07,445,1.1407554435345e-06,-4.2914259474316e-07,-3.9007625292144e-07,-7.7684642399222e-07,9.4675578012961e-08,-3.6390901954226e-07,6.263022622657e-06,-3.1729585479714e-06,-2.4066830080191e-06,-5.6248034888248e-06,0,-4.9133744393963e-07,0.0004024943597779,-0.0002110628428635,-0.00015512377914875,-0.00036444578844123,3.6476364343855e-05,-1.328148863526e-06,0.00084623606594891,30.068645477295,109.91697692871,0
-7.453357650487e-07,1.9695230943643e-08,-1.7385958821726e-07,-5.2915527060919e-08,-2.4830408936059e-08,-1.7417932088316e-08,1.271450729339e-08,-8.1487018053417e-09,1.353320126509e-08,446,0,0,0,0,0,0,-5.2915527060919e-08,-2.4830408936059e-08,-1.7417932088316e-08,1.271450729339e-08,0,1.353320126509e-08,-5.6089531490576e-06,-1.9100314566199e-06,-1.3398409298705e-06,-5.6048896795685e-07,-6.2682321579551e-07,-4.9751250859537e-07,6.6440561786917e-06,15.17578125,10,0
-0.030718461488792,-0.05,0.0011805229599942,7.6749646234813e-06,-1.3958873635584e-06,-2.1634756607066e-06,-2.2969178623911e-06,-3.2314687264706e-07,-2.4854003116474e-06,447,3.220886248347e-06,3.9850291764345e-07,-7.8988963534784e-07,-1.9170169652408e-06,7.2846737312024e-07,-1.3038692831063e-06,1.0895844157132e-05,-9.9736458866787e-07,-2.9533669505648e-06,-4.2139294732642e-06,0,-3.7892682344246e-06,0.00075726534312026,-0.00010737595104295,-0.00016642120466974,-9.8025404083847e-06,-2.4857451742082e-05,-2.4301190351175e-05,0.00099693005850735,23.317766189575,109.08530426025,0
0,0,0,-9.1993559342129e-09,-2.587282233452e-08,1.4878137431862e-10,-5.5914199026298e-09,8.5759971399171e-10,3.776486505255e-09,448,0,0,0,0,0,0,-9.1993559342129e-09,-2.587282233452e-08,1.4878137431862e-10,-5.5914199026298e-09,0,3.776486505255e-09,-1.3430825333003e-06,-1.9902171026554e-06,1.1444721101432e-08,-1.0655489924093e-06,6.5969208768593e-08,-3.4494080718737e-07,3.7625039482717e-06,8.0449666976929,0,10.566209793091
0,0,0,7.2627151757894e-16,-3.6733081599796e-08,-2.8835879623612e-17,-2.9868222480988e-09,7.8501107960406e-10,-6.2243152654821e-16,449,0,0,0,0,0,0,7.2627151757894e-16,-3.6733081599796e-08,-2.8835879623612e-17,-2.9868222480988e-09,0,-6.2243152654821e-16,-1.7231660630174e-07,-2.8256216615227e-06,-2.2181445864317e-15,-4.0207221971484e-07,6.0385467661851e-08,-1.7231671004812e-07,4.9006265063125e-06,13.937732696533,0,9.9465618133545
-2.376767297586e-07,-1.1073723189235e-07,4.4301830218247e-09,-3.36761235683e-09,-1.9127221779904e-08,7.5519350445704e-10,-9.0236869291029e-09,-3.6756756667728e-10,4.2524916136518e-09,450,0,0,0,0,0,0,-3.36761235683e-09,-1.9127221779904e-08,7.5519350445704e-10,-9.0236869291029e-09,0,4.2524916136518e-09,-7.285937008493e-07,-1.4713247523003e-06,5.8091808035157e-08,-1.1636763602549e-06,-2.8274428205944e-08,-1.4243185696608e-07,2.8172566639466e-06,0,5.0381631851196,10.373191833496
-0.00015723390130152,-2.8425583350654e-05,-3.040362298469e-05,-2.1166365144209e-06,-4.9586415619511e-06,-1.439523089094e-06,-3.2754149197209e-06,-3.1486487608294e-06,4.8684876556459e-07,451,-1.7862226057701e-06,-3.8216321086517e-06,-1.0182839881776e-06,-3.4982492848911e-07,-2.4267184396879e-06,2.1360475342592e-06,-3.9028112137465e-06,-8.7802876809171e-06,-2.4577766710126e-06,-3.625303281311e-06,0,2.6229118264802e-06,-0.00044581065506568,-0.00038143396630393,-0.00011073254531492,-0.00053494745547337,-0.00024220375083303,-0.00024554255660526,0.0010633583128955,76.877265930176,11.251775741577,0
-4.8876152498096e-07,-7.863282148312e-08,3.8321545652021e-08,-8.3561911093591e-09,-1.7851919559001e-08,1.4859043698178e-09,-3.0288355841809e-09,-2.4742061985146e-11,6.4202852215034e-09,452,0,0,0,0,0,0,-8.3561911093591e-09,-1.7851919559001e-08,1.4859043698178e-09,-3.0288355841809e-09,0,6.4202852215034e-09,-9.2921132410666e-07,-1.3732245814616e-06,1.1430033613983e-07,-5.1941474524679e-07,-1.9032355373189e-09,2.0744070134431e-07,2.7078271696573e-06,3.5783388614655,10,14.966679573059
-0.001188935142166,0.00044637775156092,9.627766185875e-05,-1.1630260461677e-06,-1.1009421549429e-06,-2.1604435891689e-06,-6.6742462857356e-06,2.7926390829601e-06,4.9599422404659e-07,453,6.7880400152206e-06,-7.2425979320527e-06,-7.15769405316e-06,-1.6101390450578e-05,6.9620061698583e-06,9.3133504353577e-06,5.6260056567818e-06,-8.341404607751e-06,-9.3185564755155e-06,-2.2776704350351e-05,0,9.8094205857121e-06,-0.00051299881746618,-8.468785807253e-05,-0.0001661879683976,-0.00093693883589448,0.00021481839099693,-0.00038538187360354,0.0013090098916769,88.315467834473,21.966091156006,20
-0.011598184477736,-0.033477604011302,0.00040539867016164,4.1524374242342e-06,1.6362826649821e-06,-8.5611090207465e-07,-1.3727296520123e-06,-5.0539454014176e-07,-5.8008423622649e-07,454,0,0,0,0,0,0,4.1524374242342e-06,1.6362826649821e-06,-8.5611090207465e-07,-1.3727296520123e-06,0,-5.8008423622649e-07,0.00044631962124852,0.00012586789730631,-6.5854684774973e-05,2.1306769229558e-05,-3.8876503087827e-05,8.2279493520773e-05,0.00055720870578892,37.01171875,50,0
-0.010975776534367,0.0012125687834796,-0.0001316991919524,1.9106571006186e-06,-8.1446212598882e-06,-1.205306829306e-06,6.8568518222379e-06,5.2974907679206e-09,-3.5136317812011e-06,455,1.4063695920416e-06,-2.5338801181834e-05,-4.0831126740114e-06,1.3951895078547e-05,5.1019188438524e-07,-1.5358264670589e-05,3.3258061259576e-06,-3.3485271960951e-05,-5.2885757272089e-06,2.0799859657447e-05,0,-1.8871788641749e-05,0.00045008191975848,-0.00062650932768371,-9.2715909946619e-05,0.00083055843680611,4.0749928984008e-07,3.282892884927e-05,0.0013587082151145,92.721527099609,49.014862060547,20
0,0,0,-5.0445904953618e-08,-2.4001025040114e-07,1.3665701888496e-08,-5.6452116480882e-08,7.0646366112662e-08,-3.2599565262122e-09,456,0,0,0,0,0,0,-5.0445904953618e-08,-2.4001025040114e-07,1.3665701888496e-08,-5.6452116480882e-08,0,-3.2599565262122e-09,-1.0235722186473e-05,-1.8462326953934e-05,1.0512078375766e-06,-1.0697738457801e-05,5.4343358548201e-06,-6.6060338459035e-06,3.4337631383083e-05,34.7265625,0,20
-0.011469375734622,-0.014343682479089,0.00020000637708707,-5.224297642662e-06,3.9749440604711e-06,2.7723225472886e-06,4.0408541843731e-07,-2.4643153099095e-07,1.9871286597342e-06,457,-1.2502685010193e-06,1.2353405925588e-06,6.2545290178712e-07,4.2397822786592e-07,1.2712675550443e-08,8.2629027315342e-07,-6.4749599434372e-06,5.2100163526479e-06,3.3977798414898e-06,8.2845768844389e-07,0,2.8134186905029e-06,-0.00056531617815614,0.00030576492772855,0.00021325558056066,-0.00013236363499466,-1.8956271614688e-05,-1.0591077971815e-05,0.0009201725180268,66.25,50,20
-9.0717865999067e-07,-5.9967975770242e-09,2.4072790356786e-07,-7.9918174806012e-08,-4.0400903050079e-08,1.6602208638424e-08,1.5669681205009e-08,7.3433040635187e-09,2.2175274618984e-08,458,0,0,0,0,0,0,-7.9918174806012e-08,-4.0400903050079e-08,1.6602208638424e-08,1.5669681205009e-08,0,2.2175274618984e-08,-8.5748530032712e-06,-3.107761773083e-06,1.2770929721864e-06,-1.2219410024234e-06,5.648695433476e-07,-7.2151073980996e-07,9.7109419755799e-06,18.3203125,10,20
-0.018027391712394,-0.019727855584597,0.00038204756472612,3.5327084603891e-06,2.1704468682419e-06,-1.1883411698164e-06,-1.267010252323e-06,-2.1362476838273e-07,-8.1921593673504e-07,459,0,0,0,0,0,0,3.5327084603891e-06,2.1704468682419e-06,-1.1883411698164e-06,-1.267010252323e-06,0,-8.1921593673504e-07,0.00035519770491441,0.00016695745140323,-9.1410859216649e-05,-1.4011426832666e-05,-1.643267449098e-05,2.043428975102e-05,0.00054505891872332,58.125,60,20
-0.011422684859446,-0.018893912559369,0.00023423829474197,-3.1907651735247e-06,3.0468999761604e-06,1.839144452366e-06,5.7347021902491e-07,-7.3777763241794e-07,7.6406552407172e-07,460,0,0,0,0,0,0,-3.1907651735247e-06,3.0468999761604e-06,1.839144452366e-06,5.7347021902491e-07,0,7.6406552407172e-07,-0.00035236055741122,0.00023437692124311,0.000141472650182,-6.2803988753551e-05,-5.6752125570611e-05,-4.8142811442258e-05,0.00062066325825017,59.375,50,20
0,0,0,-6.973886017789e-09,-4.3275740363856e-08,2.8568628886224e-09,-7.6280612378688e-09,1.1169755483384e-08,-1.0917540230462e-09,461,0,0,0,0,0,0,-6.973886017789e-09,-4.3275740363856e-08,2.8568628886224e-09,-7.6280612378688e-09,0,-1.0917540230462e-09,-1.4418586136013e-06,-3.328903104912e-06,2.1975868374019e-07,-1.4921797843767e-06,8.5921196026034e-07,-9.8938692169802e-07,6.0843848403945e-06,13.53515625,0,20
-0.0059299023285492,0.0034027890726081,-1.8146025049549e-05,-4.6886080262166e-06,-2.6189967736364e-06,1.0368250982325e-06,1.2481996398777e-05,1.4647743682596e-06,-3.0678178912607e-06,462,-2.234651014325e-05,-9.8407127005898e-06,5.8590360219023e-06,3.6944785310456e-05,4.0289634212097e-06,-1.4598275167206e-05,-2.7032151648531e-05,-1.2467953545505e-05,6.895150796098e-06,4.942370580863e-05,0,-1.76659836788e-05,-8.8033089633969e-05,-0.00020146129027973,7.9755776787115e-05,0.0012327826353656,0.00011267495140459,3.6643074593403e-05,0.001419639551003,98.702880859375,38.082485198975,0
-0.00022514535382617,3.2405430005113e-05,7.3750641363393e-05,-1.4271436183311e-06,-3.8099918270861e-06,-7.8133995489928e-07,-4.7821419349679e-06,4.6083797619817e-06,4.4418754553365e-07,463,-7.730776111973e-07,-6.2238068820906e-06,1.0377739779654e-07,-2.4077243217646e-06,5.1081196271978e-06,3.1808019329619e-06,-2.2000501122284e-06,-1.0033757346084e-05,-6.7761290392646e-07,-7.1900429602329e-06,0,3.624995064696e-06,-0.00044238208647346,-0.00029307629439124,-6.0103073453791e-05,-0.00070045888006091,0.00035449075092167,-0.00029843353540695,0.0011160501384525,79.869323730469,12.639434814453,20
-0.029707328204712,-0.05225616473298,0.00080595924721938,-1.7526223781789e-06,6.0714854522987e-06,1.6683507886178e-06,1.056077158779e-05,-4.2834922531609e-07,-2.9863110294e-06,464,-1.6507096327799e-05,2.4610890643321e-05,3.5493627051651e-06,3.7502101505422e-05,1.941150250015e-06,-2.0995005177624e-05,-1.8263849435665e-05,3.0677647966744e-05,5.217366439887e-06,4.8067056150057e-05,0,-2.3981368534181e-05,0.00020105817361379,0.00046703734248451,0.00012833467604752,0.0011482423248421,-3.294994040893e-05,0.00010615904659678,0.0015228712272561,2.4852352142334,91.605178833008,20
-0.030606377383213,-0.049994452630872,0.0012039993779174,2.5271472329887e-07,-2.427772263421e-07,2.6427392775943e-07,-2.1632480813877e-07,1.6946929567924e-08,2.3603884731472e-08,465,0,0,0,0,0,0,2.5271472329887e-07,-2.427772263421e-07,2.6427392775943e-07,-2.1632480813877e-07,0,2.3603884731472e-08,2.2900774862888e-05,-1.8675171257085e-05,2.0328763673803e-05,-1.3179189093854e-05,1.3036099667634e-06,5.2768642038575e-06,5.891811933807e-05,48.1494140625,100,0
-2.4180818921584e-07,-9.3511759032748e-08,1.7062104439901e-08,-3.1172953824186e-09,-2.1551131739244e-08,2.1830922261994e-10,-1.1478719825423e-08,2.1912236093265e-09,3.4681521114232e-09,466,0,0,0,0,0,0,-3.1172953824186e-09,-2.1551131739244e-08,2.1830922261994e-10,-1.1478719825423e-08,0,3.4681521114232e-09,-8.8178405421021e-07,-1.6577793645572e-06,1.6793017124611e-08,-1.524970549826e-06,1.6855566225589e-07,-3.7521117006853e-07,3.1501053546047e-06,0,4.9238653182983,15.678935050964
-0.0073066829712645,-0.0016654198564412,-0.00023756584620217,-2.1567171626525e-06,1.9518214522537e-06,2.4887752921732e-06,-4.1471535352339e-06,3.77325927075e-06,-4.0480621251262e-07,467,3.3818951031938e-08,6.1492928699659e-06,5.740031014179e-06,-5.3044981791436e-06,8.1367088826515e-06,5.2706792281116e-06,-2.1261382370738e-06,8.1021804480588e-06,8.2275252886859e-06,-9.4486468227147e-06,0,4.8661081493895e-06,-0.00055294037272706,0.00015014011171182,0.00019144425324409,-0.00070605086292563,0.00029025071313462,-0.00041817799194707,0.0012692598332612,86.053955078125,41.714027404785,0
-0.030791525686092,-0.050140666046504,0.0012126000064991,9.0412650246771e-06,4.0869057025636e-06,-1.0876866158262e-06,-2.16422181194e-06,8.2697205214948e-07,-2.1264857956195e-06,468,7.8148836599788e-06,4.5993241295771e-06,-8.5825053114859e-07,-3.8008061610362e-06,1.3202799411945e-06,-4.0140774989426e-06,1.6856073292732e-05,8.6863227029693e-06,-1.9459400853984e-06,-5.9649633163318e-06,0,-6.1405525592822e-06,0.00096955254519349,0.00031437736173566,-8.36682012174e-05,0.00010759201929986,6.3613234780729e-05,0.00011049478978605,0.0011002450032349,18.260129928589,107.50852966309,0
-3.2447001642008e-06,4.4839556945988e-08,9.6133812246484e-07,-2.6503607174259e-07,-1.1948538368748e-07,5.6122889546077e-08,5.7975473678717e-08,1.474667112702e-08,7.2021069437624e-08,469,0,0,0,0,0,0,-2.6503607174259e-07,-1.1948538368748e-07,5.6122889546077e-08,5.7975473678717e-08,0,7.2021069437624e-08,-2.8178132170175e-05,-9.191183360575e-06,4.3171453496982e-06,-3.3310902146897e-06,1.1343593174631e-06,-2.2506597716969e-06,3.1248847673114e-05,34.0087890625,10,20
-2.3117721442922e-05,-6.6847178156341e-07,-6.5066239567028e-06,-2.0231317641279e-06,-1.2022183367189e-06,-4.9691699737847e-07,2.8151065843612e-07,-9.157545086664e-08,7.6785524354076e-07,470,0,0,0,0,0,0,-2.0231317641279e-06,-1.2022183367189e-06,-4.9691699737847e-07,2.8151065843612e-07,0,7.6785524354076e-07,-0.00021180432005702,-9.2478333593764e-05,-3.8224384413729e-05,-3.4524133705936e-05,-7.04426545128e-06,2.8869882251907e-06,0.00026845917578058,56.46484375,10,0
-0.0062963950453064,0.0030351453924933,-0.00030354163956166,-2.8104137374539e-06,-2.9277080510392e-06,-1.002240454205e-06,9.5641336832612e-06,-2.6550829799204e-06,-2.1089942826258e-06,471,-1.8669721443946e-05,-1.301685147524e-05,-3.4086014897503e-06,3.0276207012724e-05,-3.5755770498151e-06,-1.1606485568778e-05,-2.1475970245012e-05,-1.5951718564688e-05,-4.4102997575908e-06,3.9836189454885e-05,0,-1.3715493546692e-05,5.1779269994793e-05,-0.0002252083116184,-7.7095419554229e-05,0.0010036675331267,-0.00020423715230157,0.00010573461267388,0.0014072421191027,97.802825927734,39.49100112915,20
0,0,0,-1.2293919312224e-08,-6.9850295460461e-08,4.2147406241242e-09,-1.9387641027548e-08,1.6513436834085e-08,-9.6716082451974e-10,472,0,0,0,0,0,0,-1.2293919312224e-08,-6.9850295460461e-08,4.2147406241242e-09,-1.9387641027548e-08,0,-9.6716082451974e-10,-2.8292661681109e-06,-5.3730996508047e-06,3.2421081724032e-07,-3.3749370692897e-06,1.2702643718527e-06,-1.9579770536721e-06,9.8432474161497e-06,19.892578125,0,20
-0.011083153385735,-0.0077937882624453,-2.6097303468493e-05,-1.3332411278164e-06,4.0590555243457e-06,-1.494905417873e-06,-4.7635688134018e-06,3.5049015623473e-06,1.6103664653062e-06,473,-1.5336926954798e-06,6.7894130282728e-06,-1.5285868826743e-06,-3.0475759725305e-06,4.291916767848e-06,4.5812686680103e-06,-2.8695511888847e-06,1.0848541974425e-05,-3.0241224003742e-06,-7.8086038913515e-06,0,6.1917116043243e-06,-0.00036139028728849,0.00031223504033429,-0.00011499272445177,-0.00062526164771814,0.00026960781248825,-0.00013495893397137,0.0011295450963877,75.860382080078,48.97163772583,0
-0.0084979192293368,0.0028192089490335,0.00020687850716323,2.3496548778487e-07,-8.3912611414639e-06,2.1155479235187e-06,9.3867572581879e-06,-8.3475794592536e-09,-3.144818987105e-06,474,-7.680260608751e-06,-3.2620409915667e-05,8.0648881389951e-06,2.7862853990716e-05,-8.5136538281254e-07,-2.0182593381965e-05,-7.4344500776655e-06,-4.101778772665e-05,1.0180348223034e-05,3.7238671086457e-05,0,-2.3327317249924e-05,0.00039174179284121,-0.00064548162626646,0.00016273445565528,0.0010957257751799,-6.4212149686567e-07,0.00013175837169583,0.0015033113519663,96.441566467285,43.988464355469,0
-0.011558056029017,-0.021879517246473,0.00025960788419217,-1.5780535512467e-06,2.5298818299917e-06,-1.1017409138007e-06,4.86037695927e-07,1.2203517725473e-07,5.9778566801459e-07,475,0,0,0,0,0,0,-1.5780535512467e-06,2.5298818299917e-06,-1.1017409138007e-06,4.86037695927e-07,0,5.9778566801459e-07,-0.00014990201474812,0.00019460629461474,-8.4749301061592e-05,8.8742350344715e-06,9.3873213272866e-06,1.7470232887363e-05,0.00042710270491055,54.443359375,50,0
-0.02859945508566,-0.050331758335559,0.00079982796659368,-2.2342214790861e-06,-3.604245165062e-06,-5.4982472787299e-06,-6.8170071907233e-06,2.0833045978613e-06,-3.7087100173139e-07,476,5.3081316598303e-06,-9.389930463066e-06,-1.2501980126583e-05,-1.4472852797055e-05,4.3725652181397e-06,9.1647211372248e-06,3.0754752111475e-06,-1.2991978037648e-05,-1.8000590286592e-05,-2.1291502103609e-05,0,8.7939272209204e-06,-0.00071544586405705,-0.0002772496280817,-0.00042294209836384,-0.0010679678418753,0.00016025419983549,-0.00057211121195284,0.0013005049352441,10.946236610413,85.674018859863,0
-0.011408199061447,-0.022644057202108,0.00027220188763331,-6.9550526486608e-07,2.6780326102685e-06,1.487077442544e-06,6.9352572710266e-08,-4.1016819784575e-07,-8.7207597909428e-09,477,0,0,0,0,0,0,-6.9550526486608e-07,2.6780326102685e-06,1.487077442544e-06,6.9352572710266e-08,0,-8.7207597909428e-09,-9.0127719525088e-05,0.00020600250848219,0.00011439057250339,-3.1292501249985e-05,-3.1551399834288e-05,-3.7298142211616e-05,0.00043689486898369,53.75,50,20
-0.011439537800781,-0.032127313902314,0.00035929488570476,4.1216040237416e-06,2.6714572695196e-06,1.3079040351511e-06,-1.4894067817652e-06,7.8452119900021e-07,-8.2264534553236e-07,478,0,0,0,0,0,0,4.1216040237416e-06,2.6714572695196e-06,1.3079040351511e-06,-1.4894067817652e-06,0,-8.2264534553236e-07,0.00042144368815958,0.00020549671303997,0.00010060800270393,-1.017252764863e-05,6.0347784538478e-05,4.1116813600049e-05,0.00066207151818366,39.53125,50,20
-0.030642879225368,-0.049942509355462,0.0012673826868147,-9.2531444821169e-10,2.0835397021254e-10,8.3193490219741e-10,3.191687660431e-10,2.6449959038231e-10,2.1777976929224e-10,479,0,0,0,0,0,0,-9.2531444821169e-10,2.0835397021254e-10,8.3193490219741e-10,3.191687660431e-10,0,2.1777976929224e-10,-9.3583760220689e-08,1.6027228477888e-08,6.3994992476724e-08,2.1457177989109e-09,2.0346122337101e-08,-5.6534357973095e-09,1.7138543158226e-07,79.970703125,100,20
-0.0032821751493604,0.003088297376406,1.1203757710798e-05,-4.2989641067004e-06,3.1421196879359e-07,2.7051902378813e-06,1.3567889882082e-05,1.8353092020949e-06,-3.0834241123097e-06,480,-2.5202825706247e-05,-1.0275023709529e-06,9.0990920728302e-06,4.2925847733179e-05,5.6375111032363e-06,-1.7723022026933e-05,-2.9501423450624e-05,-7.2196804392105e-07,1.1803489144763e-05,5.6493302564793e-05,0,-2.0806377451097e-05,2.6166318507938e-05,2.4170151445661e-05,0.0002080915567601,0.0014005397022604,0.00014117763093038,0.00011966939499953,0.0014639253905216,99.833236694336,30.163063049316,0
-0.011491136795966,-0.036853652412656,0.00041909624179815,6.6644089916548e-06,1.5316079742962e-06,6.1413640576069e-07,-2.5448412022046e-06,4.5428606355393e-07,-1.9886486877672e-06,481,1.6995047263516e-06,2.9232829917651e-07,1.1135256354895e-07,-9.2062112352036e-07,3.5237432965064e-07,-7.7888360283124e-07,8.3638174241081e-06,1.8243302225352e-06,7.2544145353875e-07,-3.4653702063933e-06,0,-2.7675281160317e-06,0.00063558448599363,0.00011781599802278,4.7241261981592e-05,-7.2819375072487e-05,3.4945081811841e-05,-3.0035335500373e-05,0.00078283928581509,32.340015411377,50.011558532715,20
-0.026734747353587,-0.053713575640655,0.00079101307947409,-4.3219882303433e-06,-8.6373720209804e-07,1.716162609566e-06,1.2201191770488e-05,1.2692036619093e-07,-3.0628260382809e-06,482,-2.0435557146483e-05,-2.0121449910054e-06,6.1990917508741e-06,3.5369891062999e-05,1.7572887629323e-06,-1.4934333916516e-05,-2.4756918067106e-05,-2.8835611310771e-06,7.9148945262029e-06,4.7570268986806e-05,0,-1.7996973417836e-05,-5.4592700303493e-05,-6.6441323238311e-05,0.00013201250842815,0.0012164211459143,9.7631050916097e-06,4.2265929855153e-05,0.0013494676936508,0.17992016673088,79.125457763672,20
-0.03048321802872,-0.05134757468166,0.0010336294772796,2.4284659929051e-06,6.6156298236642e-06,2.9488231010653e-06,6.2851523218265e-06,-1.5559379717195e-06,-2.0685689793508e-06,483,-1.4449844430081e-06,1.3275039184846e-05,7.3731808342026e-06,9.2462691138507e-06,-2.4907829693206e-06,-7.8012846708426e-06,9.8212544266928e-07,1.9890105748192e-05,1.0322131226589e-05,1.5532598680594e-05,0,-9.8696747878824e-06,0.00057017330726466,0.00050889460182032,0.00022683254623579,0.00086684148641246,-0.00011968753628612,0.00022424754016806,0.0012160470736076,6.1311073303223,97.940658569336,20
-0.011411609881004,-0.027237385874987,0.0003140787750429,1.8337959104747e-06,2.8610658864515e-06,1.3574506507519e-06,-6.3906332270941e-07,1.152912794167e-07,-6.1516584508602e-07,484,0,0,0,0,0,0,1.8337959104747e-06,2.8610658864515e-06,1.3574506507519e-06,-6.3906332270941e-07,0,-6.1516584508602e-07,0.00017449776672955,0.0002200819912655,0.00010441928082707,-1.572217428461e-05,8.8685599551305e-06,-1.3883906775118e-05,0.00049490575120281,46.875,50,20
-0.018182460323031,-0.020259369645353,0.00040287571013538,1.9683701779316e-06,2.5769292959127e-06,1.0891567308696e-06,-4.3201531245157e-07,1.8499932719346e-07,-4.5402820180711e-07,485,0,0,0,0,0,0,1.9683701779316e-06,2.5769292959127e-06,1.0891567308696e-06,-4.3201531245157e-07,0,-4.5402820180711e-07,0.00021385501351433,0.00019822533045482,8.3781286989968e-05,2.9209975792549e-05,1.423071747642e-05,2.7516676611354e-05,0.00045259374163304,56.875,60,0
-0.018099458631491,-0.039983638579427,0.00065052111469053,-5.5912542116619e-06,4.9719652179776e-06,-1.7588799969633e-06,-6.5677442378824e-07,2.1444449560573e-06,2.506624363281e-07,486,-2.4545684672225e-06,3.1525978593083e-06,-5.9528483853415e-07,7.9700338533497e-07,9.0555531856123e-07,1.6575650818875e-06,-8.0467925949444e-06,8.1240610341452e-06,-2.3542710471355e-06,1.4118698067067e-07,0,1.9082394151517e-06,-0.00077609837392334,0.00038245886292135,-0.00013529846130487,-0.00039652300562537,0.0001649573043121,-0.0003267201702318,0.00092535823467267,27.542304992676,60.271842956543,20
0,0,0,-3.0328270347488e-08,-1.5762360458451e-07,1.5273894863979e-08,-3.3876627139426e-08,5.063594337247e-08,-7.6823490696929e-09,487,0,0,0,0,0,0,-3.0328270347488e-08,-1.5762360458451e-07,1.5273894863979e-08,-3.3876627139426e-08,0,-7.6823490696929e-09,-6.4802850203802e-06,-1.2124892660347e-05,1.1749149895368e-06,-6.753235542837e-06,3.895072567113e-06,-4.7382910759344e-06,2.2824974848573e-05,29.8046875,0,20
-0.012000622657967,-0.040887448017333,0.00052209269268697,8.9724945521021e-06,-7.9449346852694e-07,-1.3677003699859e-06,-2.5427372284835e-06,-1.6769997706968e-06,-1.8734930178531e-06,488,4.3720137406657e-06,-1.3025453847545e-06,-1.1790846275749e-06,-2.7023580241212e-06,-4.6779597911506e-07,-1.6696557165445e-06,1.3344912654858e-05,-2.09594794792e-06,-2.5467434070738e-06,-5.245502937616e-06,0,-3.5431454114769e-06,0.00095305329087894,-6.111488219438e-05,-0.00010520772076815,6.7266230833891e-05,-0.00012899998236129,0.00011874655472854,0.0010193507405668,25.617261886597,50.456962585449,0
-0.030621192967885,-0.049928543686095,0.0012841431867709,-7.9957329418133e-11,-1.1600648473038e-10,-2.7390841119832e-10,1.0992683025972e-10,2.1311411499276e-13,-9.2177527819911e-11,489,0,0,0,0,0,0,-7.9957329418133e-11,-1.1600648473038e-10,-2.7390841119832e-10,1.0992683025972e-10,0,-9.2177527819911e-11,-9.7394884347597e-09,-8.9235757484905e-09,-2.1069877784486e-08,4.8669853866134e-09,1.6393393460981e-11,-1.0679503696435e-08,4.48605030694e-08,88.98046875,110,0
0.00010701056488905,0.00020961188683085,-8.4000914359693e-05,7.3434483742947e-06,5.4596289202282e-06,-1.873533374352e-06,-1.4195967018436e-06,1.8971006778168e-07,-1.7239959782703e-06,490,6.9494410083547e-06,5.9580419850412e-06,-1.9331154532005e-06,-3.985107428805e-06,1.0525239064551e-06,-2.9643335795497e-06,1.4292715886061e-05,1.1417823391625e-05,-3.8066705095961e-06,-5.404541553223e-06,0,-4.6883186386576e-06,0.00080718001114848,0.00041997145540217,-0.00014411795187323,0.0001330996206763,1.4593082137052e-05,0.0001096842917204,0.0010837204549225,83.199249267578,3.180412530899,20
-0.030604259007563,-0.04994461032343,0.0012664658669875,-1.0223502131505e-09,3.4663586259292e-10,-9.2066181281514e-10,5.8993729775321e-10,9.8797158092515e-11,-4.1826383534696e-11,491,0,0,0,0,0,0,-1.0223502131505e-09,3.4663586259292e-10,-9.2066181281514e-10,5.8993729775321e-10,0,-4.1826383534696e-11,-1.0600228364226e-07,2.6664297122532e-08,-7.0820139447318e-08,1.8019832581095e-08,7.599781391732e-09,-3.057737367182e-08,1.8797930856304e-07,79.4921875,100,0
-0.018925037704445,-0.042716639655271,0.00062547108510699,-4.8843355570425e-06,4.3391285809576e-06,1.6475150228713e-06,-9.8631368374537e-07,-3.9255381379978e-06,5.3782095142771e-07,492,-3.8760640894941e-06,5.0638848937697e-06,1.139740298119e-06,9.7052020308174e-07,-3.6523117807047e-06,2.9055438864124e-06,-8.762145002111e-06,9.4021370178815e-06,2.7878556684304e-06,-1.4020365321098e-08,0,3.443337078072e-06,-0.0006833812903125,0.00033377912161212,0.00012673192483625,-0.00038353345390504,-0.00030196447215368,-0.00026629232812249,0.0010956625949896,22.771911621094,61.479869842529,0
-0.03065968327594,-0.049985549580178,0.0012176484218222,-9.2240737785618e-09,5.5737531034033e-08,-2.4881436439887e-08,-5.7134922775771e-08,5.9397373641661e-09,4.4560843717562e-08,493,0,0,0,0,0,0,-9.2240737785618e-09,5.5737531034033e-08,-2.4881436439887e-08,-5.7134922775771e-08,0,4.4560843717562e-08,-1.9671298773954e-06,4.2875023872333e-06,-1.913956649222e-06,-5.6525798002577e-06,4.5690287416662e-07,2.1701714684603e-06,1.6634518584063e-05,54.329032897949,110,20
-0.011572954439264,-0.03025925113353,0.00036178365756079,2.599590873004e-06,2.1140534091125e-06,-9.8362084720913e-07,-9.3309294976826e-07,-2.340652853658e-07,-6.079096577486e-07,494,0,0,0,0,0,0,2.599590873004e-06,2.1140534091125e-06,-9.8362084720913e-07,-9.3309294976826e-07,0,-6.079096577486e-07,0.00026104092862456,0.00016261949300866,-7.566314209301e-05,-1.0703980819455e-05,-1.8005021951216e-05,1.4310118566673e-05,0.00043004177777284,41.875,50,0
0,0,0,2.5150258744265e-06,-1.907960655675e-06,7.0956655360043e-07,-3.8305814156619e-06,-1.7506288034552e-06,-1.7196505563083e-07,495,1.5608637201294e-06,5.2866672289681e-07,2.8494214592434e-07,-1.0763289252451e-06,-5.9433082618641e-07,-4.8453479488423e-07,4.0758856828848e-06,-1.3792855268504e-06,9.9451496322852e-07,-4.9069074115394e-06,0,-6.564988682115e-07,0.00010764503282899,-0.00014676620428269,5.4582042584649e-05,-0.00038047860487011,-0.00013466375411194,-9.9046577175419e-05,0.0007226469500255,74.200759887695,0.37465804815292,0
-0.030631495446705,-0.049965772351847,0.0011972742241412,-2.7297187728026e-06,-6.0523920754491e-06,-3.030905410012e-06,-1.2822611850699e-06,-1.5558129229208e-06,4.8511034836402e-07,496,-1.811554655234e-06,-3.815973982126e-06,-1.482331573407e-06,3.8580824417158e-07,-1.1019533658539e-06,1.4257464110624e-06,-4.5412714459364e-06,-9.8683620554817e-06,-4.5132464892952e-06,-8.9644774640582e-07,0,1.9108495828338e-06,-0.00041345161384107,-0.00046556862118839,-0.00023314657000093,-0.00030210872247702,-0.00011967791714775,-0.00016615706605903,0.00098543798916656,29.177026748657,99.93180847168,20
-0.030660276469128,-0.05,0.0011963926837329,6.7834982869246e-07,-7.7558258333101e-07,4.4254896797398e-07,-1.1713051630905e-06,-2.2544078573581e-07,3.1531953340882e-07,497,0,0,0,0,0,0,6.7834982869246e-07,-7.7558258333101e-07,4.4254896797398e-07,-1.1713051630905e-06,0,3.1531953340882e-07,4.1932536765428e-05,-5.966019871777e-05,3.404222830569e-05,-0.00010034861644865,-1.7341598902755e-05,1.4007129435917e-05,0.00018303841171605,42.749908447266,110,20
-0.030642773611107,-0.049974224047882,0.0012312171163602,-1.0667014430615e-08,-5.1761117563462e-09,-9.9179881274923e-09,4.5627512271568e-09,4.5837200204695e-09,7.6394067700539e-09,498,0,0,0,0,0,0,-1.0667014430615e-08,-5.1761117563462e-09,-9.9179881274923e-09,4.5627512271568e-09,0,7.6394067700539e-09,-7.3197359658993e-07,-3.9816244279586e-07,-7.6292216365326e-07,4.3954683862332e-07,3.5259384772842e-07,6.762126496154e-07,2.2609649203948e-06,61.171875,100,20
-0.027835709901175,-0.050535598626028,0.0012196827362402,-1.047724754766e-06,1.029236501609e-06,2.1828185148382e-06,-6.7235986474709e-06,-1.371573961842e-06,1.7901305725001e-06,499,5.3313116665458e-06,2.7022496131839e-06,8.1162510936391e-06,-1.6412921708294e-05,-1.9738663886223e-06,1.1081610041749e-05,4.2826441151107e-06,3.7343637998754e-06,1.029908571335e-05,-2.3135637349093e-05,0,1.2871800404246e-05,-0.00042566302900529,7.9172038585311e-05,0.00016790911652602,-0.00086226871305951,-0.00010550568937246,-0.00020736646536943,0.0013203975124685,10.272192001343,82.460479736328,20
-0.027240736430666,-0.053284460031704,0.0010413365123675,-5.1061890363006e-06,1.9346491453038e-06,-1.0050106973047e-07,1.3051560365511e-05,4.9636803906912e-07,-3.8286880783695e-06,500,-2.2259794771761e-05,5.8170587197109e-06,-1.0196725308818e-06,3.9203537060437e-05,1.5431034561731e-06,-1.6943742288676e-05,-2.7367271150105e-05,7.7445350906217e-06,-1.1202294129032e-06,5.2256342236109e-05,0,-2.0772387835162e-05,-0.00015528281524381,0.00014881916502337,-7.7308515177283e-06,0.0012414671387417,3.818215685147e-05,-5.7013510787571e-05,0.0014096518590961,0.63835334777832,81.152725219727,0
-0.030620889419427,-0.049985049441479,0.0012193512818447,-3.3789054407615e-08,5.3459781973081e-08,-3.1212504969342e-09,-4.9546349439004e-08,1.9186138822693e-08,5.4635258564174e-08,501,0,0,0,0,0,0,-3.3789054407615e-08,5.3459781973081e-08,-3.1212504969342e-09,-4.9546349439004e-08,0,5.4635258564174e-08,-4.2549356438037e-06,4.1122909210062e-06,-2.4009619207186e-07,-5.4670352616029e-06,1.4758568325148e-06,2.5469345847955e-06,1.4605022926296e-05,55.506378173828,110,0
0,0,0,-1.7545984991417e-08,-9.6065248236772e-08,7.9954245158555e-09,-1.9225879083226e-08,2.1509076858063e-08,-3.048873316948e-09,502,0,0,0,0,0,0,-1.7545984991417e-08,-9.6065248236772e-08,7.9954245158555e-09,-1.9225879083226e-08,0,-3.048873316948e-09,-3.6470413873162e-06,-7.3896344797517e-06,6.1503265506581e-07,-3.776264009763e-06,1.6545443736971e-06,-2.5318789508186e-06,1.3478236282684e-05,26.38671875,0,20
0,0,0,-1.290993147986e-07,-6.5602683734223e-07,2.0424526258704e-08,-2.0933712098124e-07,-2.009696668215e-07,6.2135855308911e-08,503,0,0,0,0,0,0,-1.290993147986e-07,-6.5602683734223e-07,2.0424526258704e-08,-2.0933712098124e-07,0,6.2135855308911e-08,-2.5871134627062e-05,-5.0463602872479e-05,1.5711174045157e-06,-3.2043273564187e-05,-1.5459205140115e-05,-1.1160736926484e-05,9.6641119549432e-05,47.3046875,0,0
-0.030625575625542,-0.05,0.001181505532905,2.1638759972416e-06,-1.6795909253893e-06,-1.0158785496102e-06,-2.6424608277596e-06,4.780736557528e-07,4.9452479890557e-07,504,0,0,0,0,0,0,2.1638759972416e-06,-1.6795909253893e-06,-1.0158785496102e-06,-2.6424608277596e-06,0,4.9452479890557e-07,0.00016737161334864,-0.00012919930195302,-7.8144503816169e-05,-0.00020234660395914,3.6774896596369e-05,3.8959982707408e-05,0.00043308766176704,36.835857391357,110,0
0,0,0,-3.4908543250314e-07,-1.2361217384391e-06,2.2681304111646e-08,-3.8239917140277e-07,3.6707559447044e-07,7.2460602584228e-08,505,0,0,0,0,0,0,-3.4908543250314e-07,-1.2361217384391e-06,2.2681304111646e-08,-3.8239917140277e-07,0,7.2460602584228e-08,-6.4873341038031e-05,-9.5086287572236e-05,1.7447157008958e-06,-6.7435936338003e-05,2.8236584190034e-05,-3.2446722954387e-05,0.00018028798939569,55.4736328125,0,20
-0.026613699371486,-0.050302866267421,0.00079148355961107,-8.717988143342e-09,7.717058657097e-07,-2.6859312831564e-06,-4.7865315425344e-06,9.298527486168e-07,1.4143837653573e-06,506,4.284830871822e-06,4.899113519985e-06,-7.251870608685e-06,-9.0421827070878e-06,-4.7377175828151e-07,4.7573518352657e-06,4.2742041641601e-06,5.6731051221614e-06,-9.9376486748193e-06,-1.3826824677993e-05,0,6.1717547485123e-06,-0.00019572056247182,5.9361989669977e-05,-0.00020661009870434,-0.00056324468204036,7.1527134508985e-05,-8.6251196817922e-05,0.0012381893119955,10.238212585449,78.568939208984,0
-0.0017956061359439,0.00031758319583656,-0.00024493866145303,5.6305422562638e-07,-2.2869275272878e-06,4.8523730761815e-06,-7.7691955136541e-06,-1.0825266911467e-06,-1.1386120674908e-06,507,8.7479816790983e-06,-6.332151621011e-06,1.1423412090455e-05,-1.3611487394449e-05,-2.6704814475858e-06,4.8635057153504e-06,9.3119513490457e-06,-8.6174452225899e-06,1.6276029652226e-05,-2.1381764306352e-05,0,3.7250596017875e-06,-0.00043811621469327,-0.00017591750209906,0.00037325946739858,-0.0010790585023302,-8.3271283934358e-05,-0.00056901362185613,0.001281373919867,89.087745666504,24.529613494873,0
-3.5296114570182e-06,0.00072484872997723,2.5152555462848e-05,5.9045101022154e-06,7.8902433246766e-06,1.710355951222e-06,8.6491064265051e-07,-1.3530955945202e-06,1.487524906093e-06,508,7.3869704256597e-06,1.6763939331188e-05,3.532454955608e-06,-3.6520773111086e-06,-2.5256095325496e-06,-3.7348931145512e-06,1.3290703771739e-05,2.4654441351492e-05,5.2428018670266e-06,-2.7864372197398e-06,0,-2.24732090104e-06,0.00093055533387959,0.00060694179420589,0.00013156584240169,0.00054289383698998,-0.00010408427650156,0.00059078724187017,0.001227096686626,90.61589050293,8.3007068634033,0
-0.018001769468377,-0.033474799202192,0.0005624670388485,-4.2468229732624e-06,2.711192350814e-06,-1.6847517658528e-06,7.5881091855884e-07,3.8069983229788e-07,1.1145043878486e-06,509,0,0,0,0,0,0,-4.2468229732624e-06,2.711192350814e-06,-1.6847517658528e-06,7.5881091855884e-07,0,1.1145043878486e-06,-0.0004636118248772,0.00020855325775493,-0.00012959628968099,-7.8563063967873e-05,2.9284602484452e-05,-5.1202027868659e-05,0.00063028528244074,37.5,60,20
-0.030604566026839,-0.049987293047226,0.0012169562397183,9.7941961371482e-08,-1.6366439706544e-08,8.7939748626704e-08,-6.8615136382664e-08,1.6282667132861e-08,2.3496443211794e-09,510,0,0,0,0,0,0,9.7941961371482e-08,-1.6366439706544e-08,8.7939748626704e-08,-6.8615136382664e-08,0,2.3496443211794e-09,9.3614856426138e-06,-1.2589569005034e-06,6.764596048208e-06,-3.4505988000128e-06,1.2525128563739e-06,2.0082304848983e-06,1.9808550758354e-05,54.19921875,100,0
-0.007552880542325,-0.0022194327554348,0.00018265790906528,-1.1424628989733e-06,3.4560771128986e-06,-2.0625022872594e-06,-4.7956300916122e-06,-4.2397730840022e-06,-6.7303817651067e-07,511,3.3223194946398e-06,1.1962564158555e-05,-7.3401742415256e-06,-8.2082292745784e-06,-1.1701308170194e-05,4.8859097799386e-06,2.1737848575182e-06,1.5420590888125e-05,-9.4007034480138e-06,-1.2997919171912e-05,0,4.2130031472972e-06,-0.0004692931749458,0.00026585208560759,-0.00015865402209688,-0.00075030603591803,-0.00032613639107709,-0.00043318358091022,0.0013360233573283,85.494842529297,42.321731567383,20
-0.015134253757128,-0.048236293380739,0.0007171445248646,8.1900681920927e-06,-4.4530083838616e-06,-1.3496914184279e-06,-1.6370315813852e-06,-7.7029528071494e-08,-2.7284001335575e-06,512,1.206704462192e-05,-9.3138362563735e-06,-3.9749900323478e-06,-4.1005566749627e-06,-1.4903658047115e-09,-7.9664879469573e-06,2.0260651305375e-05,-1.3763684221392e-05,-5.3247524935963e-06,-5.7411908321173e-06,0,-1.0694823996108e-05,0.00085065734999656,-0.00034253910645089,-0.00010382241680214,9.4726598190562e-05,-5.9253483131918e-06,1.0775171100389e-05,0.0011624510003195,13.554664611816,55.054389953613,0
8.0152027684677e-05,0.00011321644689303,6.3912147023471e-05,8.9392351388104e-06,3.3760805179736e-06,9.9095773670428e-07,-2.5341365202255e-06,-1.3637192016278e-06,-1.9117134864121e-06,513,6.2840466276689e-06,3.7036276257273e-06,4.8386545375735e-07,-3.6298420966817e-06,-1.1353544978972e-06,-2.6542045309872e-06,1.5223232960453e-05,7.0797711924254e-06,1.4748368054054e-06,-6.1639309708448e-06,0,-4.5659168574351e-06,0.00094686722984154,0.00025969850138259,7.6227518208021e-05,6.4300179146468e-05,-0.00010490147704829,0.00011217887405519,0.0010821112343079,80.745712280273,2.142765045166,0
0,0,0,-3.2797325174753e-07,-2.1401212981928e-06,3.990417828131e-08,-1.0469210337849e-06,8.659966690975e-07,1.3649816886511e-07,514,0,0,0,0,0,0,-3.2797325174753e-07,-2.1401212981928e-06,3.990417828131e-08,-1.0469210337849e-06,0,1.3649816886511e-07,-9.667464148062e-05,-0.0001646247152456,3.0695521754854e-06,-0.00015197831702196,6.6615128392115e-05,-6.0946070664263e-05,0.00032345728889947,62.275390625,0,20
-0.011628349396607,-0.036844490264948,0.00043555909258552,6.3910939005253e-06,5.978439271799e-07,8.7279973893184e-08,-2.2509342995331e-06,-1.1815127199779e-06,-1.0940394281214e-06,515,6.570853394465e-07,-6.0348486876647e-08,-8.6431286944258e-08,-3.1074617574397e-07,-1.6313641956836e-07,-3.4633916370253e-07,7.0481888434306e-06,5.3757662109748e-07,8.6054388400794e-10,-2.5616896998529e-06,0,-1.4403789707069e-06,0.00066736031001372,4.5987994398454e-05,6.7138441456295e-06,2.58891000923e-06,-9.0885593844454e-05,9.1580823194745e-05,0.00068825466556962,31.875,50,0
-0.030621193088192,-0.049920627101448,0.0012931712178605,-1.4876748586489e-11,-5.4574165098782e-11,-6.4416982106909e-11,3.1187900839046e-11,-1.1478572270623e-11,-3.4649773385586e-11,516,0,0,0,0,0,0,-1.4876748586489e-11,-5.4574165098782e-11,-6.4416982106909e-11,3.1187900839046e-11,0,-3.4649773385586e-11,-2.2023626489432e-09,-4.1980126999063e-09,-4.9551524697623e-09,1.3410719222518e-09,-8.829670977402e-10,-3.7233645565661e-09,1.3175214277731e-08,93.65625,110,0
-0.02924196068888,-0.050515634676256,0.0012389249892465,-1.8943193405499e-06,-4.4258972588818e-06,4.642855639378e-06,-9.0521081443326e-06,-2.4741585937085e-06,1.9024335306477e-07,517,7.5794188701988e-06,-1.3724372728095e-05,1.2523886138984e-05,-2.0464679520727e-05,-7.6905020497187e-06,1.2885260650528e-05,5.6866932064887e-06,-1.8148113759247e-05,1.7167183943028e-05,-2.9518520682108e-05,0,1.3075643343801e-05,-0.00076626595687794,-0.0003404536352986,0.00035714274149061,-0.0013168650956305,-0.00019031989182373,-0.00060591498044604,0.0013532037938913,12.140016555786,88.732780456543,20
-0.0019116227371457,0.0027861612191223,-0.00041121681171065,-4.0712935048013e-06,2.0978098375795e-06,-1.8864905513357e-06,1.1974540774303e-05,7.8459253686567e-07,-3.0313918807757e-06,518,-2.0270779948413e-05,9.4450672393439e-06,-4.7202024350654e-06,3.9639123388183e-05,2.2298932647242e-06,-1.936834343977e-05,-2.4343802041092e-05,1.1537687610541e-05,-6.6070069170975e-06,5.1615206693546e-05,0,-2.2399549263728e-05,-3.2107843327424e-05,0.00016136998750611,-0.00014511465779505,0.0012021871012191,6.035327206659e-05,4.7884589289929e-05,0.0014674557808102,99.512718200684,25.236209869385,20
-0.018159183154618,-0.016417113639371,0.00036185630464774,4.5957832066553e-06,2.7062106909312e-06,9.8854820677091e-07,-1.0382751931744e-06,6.4440352754902e-07,-1.3211250266968e-06,519,3.7845360718813e-07,1.5283832641301e-07,5.8526738023311e-08,-1.7968258881762e-07,9.4711804132127e-08,-1.987710183705e-07,4.9742154664266e-06,2.8590882274411e-06,1.0470686152079e-06,-1.2179369040642e-06,0,-1.5198955755784e-06,0.00048254388051871,0.00020817005314856,7.6042169751608e-05,4.9154772839507e-05,4.9569502119155e-05,2.7397093337788e-05,0.00064667660726728,62.65625,60,0
-0.030659811055676,-0.049933227767759,0.0012773271393617,-3.4126293840897e-10,-2.0882520156807e-10,5.8429015779678e-10,2.2528098578167e-10,8.5145555802731e-11,-1.727967532349e-10,520,0,0,0,0,0,0,-3.4126293840897e-10,-2.0882520156807e-10,5.8429015779678e-10,2.2528098578167e-10,0,-1.727967532349e-10,-4.2911305215817e-08,-1.6063477043697e-08,4.4945396753599e-08,6.6899664500152e-10,6.5496581386716e-09,-2.9952367894735e-08,9.6205034661274e-08,85.453125,110,20
-0.030848293680908,-0.05006199271979,0.0010790296687451,9.5688583516335e-06,1.062804441569e-06,2.1009966288165e-06,-2.3547773892104e-06,-3.1197444007535e-06,-1.513230850681e-06,521,9.621665643213e-06,2.5369244201023e-06,2.9300766574955e-06,-5.5177997840246e-06,-3.621849189709e-06,-4.1038658591884e-06,1.919043318243e-05,3.5998416520677e-06,5.0311450894431e-06,-7.8725205271553e-06,0,-5.6170625435327e-06,0.0010649612258031,8.1754187813002e-05,0.00016161512529358,0.00014775847650739,-0.0002399803385195,0.00021249282562505,0.0011260106512502,20.256782531738,108.25196075439,20
-0.030642842191588,-0.049962278707977,0.0012448226710815,-8.176943470853e-09,-1.4623669837053e-09,-1.0224666406319e-09,1.1034439208178e-09,8.6012291966286e-10,5.9100572045661e-09,522,0,0,0,0,0,0,-8.176943470853e-09,-1.4623669837053e-09,-1.0224666406319e-09,1.1034439208178e-09,0,5.9100572045661e-09,-6.9611732538114e-07,-1.1248976797733e-07,-7.8651280048609e-08,1.7758627824302e-08,6.6163301512528e-08,3.8749811118956e-07,1.1024376064111e-06,68.28125,100,20
-0.030621155669683,-0.049963216958679,0.0012446219659786,-7.1442482853631e-09,-5.2289627443796e-10,-5.2443298059085e-09,1.1077613101116e-09,-1.6256834085884e-09,9.3816185026841e-10,523,0,0,0,0,0,0,-7.1442482853631e-09,-5.2289627443796e-10,-5.2443298059085e-09,1.1077613101116e-09,0,9.3816185026841e-10,-8.436917022385e-07,-4.0222790341382e-08,-4.0340998506989e-07,-2.0892173335582e-07,-1.2505256989142e-07,-2.2196784565145e-07,1.1088104642672e-06,68.5,110,0
-0.030659805173282,-0.049945258757929,0.0012635923121106,-1.0726906505742e-09,-6.6615429233647e-10,1.5746112073815e-09,5.96125387007e-10,3.5716413333292e-10,-3.6985534539126e-10,524,0,0,0,0,0,0,-1.0726906505742e-09,-6.6615429233647e-10,1.5746112073815e-09,5.96125387007e-10,0,-3.6985534539126e-10,-1.3134662363793e-07,-5.1242637872036e-08,1.2112393902935e-07,-2.9761592086049e-09,2.7474164102532e-08,-7.7282369393087e-08,2.7419224002838e-07,78.34375,110,20
0,0,0,-7.0641257707519e-08,-2.56786954149e-07,-9.8789317625799e-09,-4.3166136526586e-08,-4.7442081959152e-08,8.1985561561544e-09,525,0,0,0,0,0,0,-7.0641257707519e-08,-2.56786954149e-07,-9.8789317625799e-09,-4.3166136526586e-08,0,8.1985561561544e-09,-1.1526760481999e-05,-1.9752842626846e-05,-7.5991782789076e-07,-9.4132896219269e-06,-3.6493909199348e-06,-5.4621594155622e-06,3.6558602998785e-05,35.2734375,0,0
-0.029614433212093,-0.050171165945742,0.00078049827675977,6.0244208972844e-07,-2.2197697696658e-06,-1.3968143016726e-06,-8.1030094143173e-06,3.1212041888494e-06,1.3367523548978e-06,526,5.7151627967892e-06,-9.5610251213453e-06,-3.8656588490661e-06,-1.6461699141471e-05,7.5571759841367e-06,1.0746536344682e-05,6.3185150830184e-06,-1.1779525470631e-05,-5.2627825673353e-06,-2.4565795372246e-05,0,1.2083465319537e-05,-0.00030926301057999,-0.00017075152074352,-0.00010744725397481,-0.00097891312627581,0.00024009262991149,-0.00025277760556696,0.0013057193114676,12.863634109497,90.212699890137,0
-8.7886804411536e-05,-1.5942791180349e-05,5.0778408209515e-05,-3.8605405680619e-06,-4.457702169593e-06,2.7821445168152e-06,-7.9734411640956e-07,3.7996591479521e-06,2.5220051917428e-07,527,-2.0543543050444e-06,-3.2431480074483e-06,1.214561473133e-06,7.2914702925666e-07,2.9874775007974e-06,1.3252072757877e-06,-5.9148708765997e-06,-7.7008552176735e-06,3.9966948874699e-06,-6.8224199286168e-08,0,1.5774109105887e-06,-0.00055113874554113,-0.00034290016689177,0.00021401111667809,-0.00031550824926019,0.0002922814729194,-0.00023477404652297,0.0010627622803849,73.058090209961,10.423884391785,20
-0.011658351550032,-0.011716983070332,0.00010321215557918,-4.7390548740694e-06,4.1700533013352e-06,-3.0529301199573e-06,-5.2836189829615e-07,2.6524065270471e-06,9.5571897718784e-07,528,-1.566534164718e-06,1.9240519668738e-06,-1.3115455325881e-06,2.6272192345428e-07,1.8237693475896e-06,1.3038122412637e-06,-6.3060123230623e-06,6.0938620447453e-06,-4.3646805044906e-06,-2.6523795996493e-07,0,2.2595524878495e-06,-0.00061329447849636,0.00032077333087194,-0.00023484077845826,-0.00028939501882149,0.00020403127131131,-0.00017523495147657,0.0010432164996913,69.786483764648,50,1.9599519873736e-05
-0.030642881658147,-0.049933599379215,0.0012775491292232,-1.4260342839192e-10,9.3472205158389e-11,2.53909288536e-10,8.8286693019118e-11,7.5258140567142e-11,-1.4451409789e-11,529,0,0,0,0,0,0,-1.4260342839192e-10,9.3472205158389e-11,2.53909288536e-10,8.8286693019118e-11,0,-1.4451409789e-11,-1.493688748179e-08,7.1901696275684e-09,1.9531483733539e-08,2.8238910882899e-09,5.789087735934e-09,-5.07903989695e-09,4.6487701299751e-08,85.234375,100,20
-0.030165344135186,-0.050074044018672,0.00089567609056359,-2.6156298695645e-06,-5.9432288076588e-06,3.0577271924301e-07,-5.562253413918e-06,5.0552931213383e-06,1.9627488905683e-07,530,-1.2713571411862e-06,-1.7246990334245e-05,1.1507157177512e-07,-7.7150932874291e-06,1.1645241921931e-05,8.9864504286154e-06,-3.8862434867434e-06,-2.3189973024256e-05,4.2036741051643e-07,-1.3278364062401e-05,0,9.1829991547186e-06,-0.00066167970502953,-0.00045717144674299,2.3520978403308e-05,-0.00088834305459518,0.00038886870164141,-0.00044537933898173,0.0012987354450637,17.000255584717,95.031784057617,0
-0.022601026923539,-0.053226664084552,0.0010934565586195,-1.1276322014144e-07,-6.0813742617363e-06,-3.9364983259839e-06,7.5703452600646e-06,-1.6688488819113e-06,-1.5502715796839e-06,531,-1.0354317419643e-05,-1.8254973101499e-05,-1.1253184606941e-05,2.2009999818072e-05,-3.5697395796024e-06,-1.1655682398429e-05,-1.0460962897894e-05,-2.4342443965954e-05,-1.5189105859274e-05,2.9573916525307e-05,0,-1.3205643167174e-05,0.00033213227884908,-0.00046779802013356,-0.00030280756353722,0.00092314062348031,-0.00012837299091626,0.00022155471273042,0.0013837740426159,2.807745218277,68.429641723633,0
-0.011128245922269,0.0016267665839791,0.00025585488901825,2.363766736845e-06,-8.7914557288747e-06,2.4725787812301e-06,7.5420862529488e-06,1.3456573000054e-06,-2.6783456957879e-06,532,-4.1857301453139e-07,-3.2175908984235e-05,8.2178689264243e-06,1.8616841827265e-05,2.273690344874e-06,-1.8198268812734e-05,1.9570462585706e-06,-4.097086208116e-05,1.0689773121145e-05,2.6146912354954e-05,0,-2.0876451319518e-05,0.00059879978518073,-0.00067626582529805,0.00019019836778693,0.00099713205565025,0.00010351210000042,0.0002109449826705,0.0014542535662254,92.972686767578,49.140594482422,0
-0.018152146736119,-0.033160929606878,0.0005276571033555,-4.3449939082022e-06,2.4889855132579e-06,1.8386707125754e-06,1.4644333050409e-06,-9.2599272368385e-07,1.0227339391975e-06,533,0,0,0,0,0,0,-4.3449939082022e-06,2.4889855132579e-06,1.8386707125754e-06,1.4644333050409e-06,0,1.0227339391975e-06,-0.00044141260816731,0.00019146042409676,0.00014143620865965,5.466408236005e-06,-7.1230209514143e-05,-2.8510466059638e-05,0.00064489471072613,37.5,60,0
-0.030642869588888,-0.049952572714774,0.0012558963432745,-2.8678811432823e-09,3.4841327623697e-10,1.6180335323038e-09,7.1067998917666e-10,4.0370197915504e-10,1.3704262514069e-09,534,0,0,0,0,0,0,-2.8678811432823e-09,3.4841327623697e-10,1.6180335323038e-09,7.1067998917666e-10,0,1.3704262514069e-09,-2.6599710156203e-07,2.6801021248998e-08,1.2446411786953e-07,9.2768317040451e-09,3.1053998396542e-08,6.0026544183297e-08,4.3414864725039e-07,74.0234375,100,20
-0.013586125993805,-0.00082566489206885,-7.415000732281e-05,7.2585858998847e-06,-6.1853340206291e-06,-2.0975948815402e-06,1.3393528100681e-07,-1.3930014570358e-06,-1.4677112842512e-06,535,1.0931737955801e-05,-1.9072512832632e-05,-5.9783655783326e-06,-2.5181988160024e-06,-2.1739963293538e-06,-8.4135391397982e-06,1.8198281745232e-05,-2.525525501929e-05,-8.0756813126122e-06,-2.3923116482072e-06,0,-9.8811602003843e-06,0.000900168717105,-0.00047579492466378,-0.00016135345242617,0.000352118669499,-0.00010715395823352,0.00022891508755608,0.0012861652758712,88.264068603516,53.625305175781,20
0,0,0,1.4166183727173e-06,-2.473439502601e-06,4.5102921963091e-07,-2.2604872377549e-06,2.6373177070854e-06,-1.0086815533654e-06,536,5.1950106550957e-07,-1.0708085983094e-07,9.1587899156578e-08,-2.2090678675049e-07,3.6983175352631e-07,-2.9859427875908e-07,1.9361198474098e-06,-2.5805193362405e-06,5.4261574026305e-07,-2.4813944254818e-06,0,-1.307275840331e-06,2.0927353011604e-06,-0.00019026457712316,3.4694555356224e-05,-0.00028076154242748,0.00020287059285272,-0.00018446879747443,0.00061508577987888,70.196403503418,0.074221029877663,20
-0.023977032522962,-0.053831011133322,0.00067060434025974,-3.8254619760211e-06,-5.0391844827822e-06,1.3357030446931e-07,1.1901376529872e-05,-4.0605637112483e-07,-4.0660280332723e-06,537,-1.9010567678102e-05,-1.7446925206662e-05,2.1314801711036e-06,3.684664256517e-05,-9.5965649170845e-07,-1.7836074887068e-05,-2.2830628320012e-05,-2.249483182602e-05,2.2649666702867e-06,4.8742589017745e-05,0,-2.1902074177154e-05,-6.292669889133e-05,-0.00038762957559863,1.0274638805332e-05,0.0011468301092543,-3.1235105471141e-05,-8.1431780218341e-05,0.0014361026664782,1.2057696580887,71.867156982422,20
-0.030604261228933,-0.04992331259152,0.0012907519546944,-5.5917683910857e-11,2.9614345706071e-11,-6.309856691009e-11,2.9045613958854e-11,-4.8395321383661e-12,-2.9229587904231e-12,538,0,0,0,0,0,0,-5.5917683910857e-11,2.9614345706071e-11,-6.309856691009e-11,2.9045613958854e-11,0,-2.9229587904231e-12,-6.0203042667444e-09,2.2780265927747e-09,-4.8537359161608e-09,5.153340309257e-10,-3.7227170295124e-10,-1.9437869497879e-09,1.1541701189528e-08,92.0703125,100,0
-0.018074864228338,-0.012362175394927,0.00033820909377002,9.3154429710864e-06,1.3949193576557e-06,1.1552846240336e-06,-3.0313520506424e-06,5.2642222988506e-07,-2.1584635503988e-06,539,5.3894996759026e-06,2.6031494038379e-07,7.8451222991617e-07,-3.5025145174655e-06,-3.3063823454842e-07,-1.8869851584371e-06,1.4704883596696e-05,1.6564030023331e-06,1.9398395135638e-06,-6.5338000597747e-06,0,-4.0454561668763e-06,0.00095458949989386,0.00010730148905044,8.8868048002583e-05,4.8360366839576e-06,4.0494017683466e-05,7.1981305933463e-05,0.0010125794424397,68.834327697754,59.969207763672,0
-0.03089223482188,-0.050356232520811,0.00102392229845,7.9562318771293e-06,6.231550554652e-06,1.6956450669414e-06,1.9294479714007e-07,-2.6875478659026e-07,-2.677187257186e-06,540,9.9419632549677e-06,1.1593226539272e-05,2.8602075279152e-06,-2.2403631280362e-06,1.2274762601763e-07,-7.7016001269316e-06,1.7897688761931e-05,1.7825001161317e-05,4.5559068254939e-06,-2.0469417623915e-06,0,-1.0378757582457e-05,0.00092770953384168,0.00047935004266553,0.00013043423591857,0.00033053360461174,-2.0673445122328e-05,0.00010975421581743,0.0011792955672793,15.026107788086,105.78694152832,20
-0.030569406187926,-0.049956696954359,0.0011385221974906,-2.9802863823745e-06,-5.6778758939259e-06,2.9353793707263e-06,-2.7278695688572e-06,1.4253743601109e-06,9.702124716504e-07,541,-2.0596460111345e-06,-4.1778220411618e-06,2.0615634238912e-06,-3.08509059347e-07,5.9461222226631e-07,2.3681550704815e-06,-5.039921392461e-06,-9.8557111626105e-06,4.9969127780212e-06,-3.0364029191546e-06,0,3.3383808320342e-06,-0.00050259569169696,-0.00043675968414815,0.00022579841313279,-0.0004831790137341,0.00010964418154699,-0.00019871116446428,0.0010157894866365,26.302387237549,99.624481201172,0
-7.9889567601127e-05,0.0010537719735051,2.6613603786002e-05,2.7842909376555e-06,7.0906805468848e-06,3.1767994209142e-06,4.910529877067e-06,-9.6607017915706e-07,-1.7700652182498e-06,542,2.6581441085445e-06,1.4764874446253e-05,5.1636513467361e-06,4.4481319330259e-06,-2.2609845546637e-06,-7.1062760415704e-06,5.4413085643174e-06,2.1855442418362e-05,8.3405616389001e-06,9.3596826793775e-06,0,-8.8762356472221e-06,0.00055598904884693,0.00054543696514498,0.00024436918622417,0.00071954589034012,-7.4313090704389e-05,0.00020565395993114,0.0012087556863928,93.693176269531,11.757086753845,0
-9.4233263553591e-06,-4.5439853131556e-07,2.4458984511277e-06,-7.0981144984855e-07,-3.946524072465e-07,1.6592567876426e-07,1.1969692983832e-07,6.9909924328939e-08,2.3268147438486e-07,543,0,0,0,0,0,0,-7.0981144984855e-07,-3.946524072465e-07,1.6592567876426e-07,1.1969692983832e-07,0,2.3268147438486e-07,-7.5222018005198e-05,-3.03578774805e-05,1.2763513751097e-05,-1.1413681106208e-05,5.3776864868415e-06,-2.7225622949352e-06,9.0692131189673e-05,46.34765625,10,20
-0.025172584486962,-0.053637127805383,0.0010366144514019,-4.1677109261154e-06,-1.7255243817786e-06,-2.2590947088177e-06,1.2131468244211e-05,-1.4219058023091e-06,-2.7019749513045e-06,544,-1.7879321874807e-05,-3.9741571725164e-06,-7.0357088844167e-06,3.2237191158308e-05,-9.140305556493e-07,-1.4357869283501e-05,-2.2045986588225e-05,-5.7072798683257e-06,-9.2947086564235e-06,4.43674616837e-05,0,-1.7059692728685e-05,-1.7028780847866e-05,-0.0001327326447522,-0.0001737765160629,0.0012367542322541,-0.00010937736940839,9.5720140291431e-05,0.0013514158490901,0.91475570201874,74.791687011719,0
-0.030619614737815,-0.05,0.0011947957656854,6.102793316749e-07,-8.5175719504452e-07,-5.2764093153853e-07,-1.0191501201146e-06,1.3007127755875e-07,2.497595437306e-07,545,0,0,0,0,0,0,6.102793316749e-07,-8.5175719504452e-07,-5.2764093153853e-07,-1.0191501201146e-06,0,2.497595437306e-07,3.776506908793e-05,-6.5519784234194e-05,-4.0587763964502e-05,-8.7575657972799e-05,1.0005482889135e-05,1.00327777076e-05,0.00018189483474209,43.187408447266,110,0
-0.011556130751242,-0.025381423582341,0.00030456724398454,9.4024265125003e-07,2.1916463241372e-06,-1.2673721679843e-06,-3.620873550535e-07,-1.0341478061994e-07,-1.7729089141906e-07,546,0,0,0,0,0,0,9.4024265125003e-07,2.1916463241372e-06,-1.2673721679843e-06,-3.620873550535e-07,0,-1.7729089141906e-07,9.545315037178e-05,0.00016858817877979,-9.7490166768024e-05,-4.7260808823379e-06,-7.9549831246105e-06,9.4890317049263e-06,0.00037283147082108,49.19921875,50,0
-0.01815190300042,-0.038344428935853,0.00057433079230925,-3.9811643026967e-06,3.4806892629836e-06,2.0603352713938e-06,1.3115649085095e-07,-8.8236466479211e-07,1.3008388821504e-06,547,-1.2227702371639e-06,1.2248501078796e-06,1.8137965263264e-07,6.2235136874138e-07,-5.1366980422458e-07,6.0041886842255e-07,-5.2043447775416e-06,4.7052249479218e-06,2.2418072079389e-06,7.5392254512963e-07,0,1.9012533027166e-06,-0.0004533108461514,0.00026774532792181,0.00015848732856876,-0.00013697847741697,-6.7874204984009e-05,-4.7002908855473e-05,0.00087564967397199,29.596282958984,60.085243225098,0
-0.0096130409062293,-0.0042479244455953,-0.00017008612682508,-3.4582752346858e-06,5.5297341644402e-06,-3.7970845911573e-07,-5.1629047136822e-06,3.9691147348127e-06,8.5864941259687e-07,548,-3.3412735942888e-06,1.3041495912226e-05,-5.1926091453811e-07,-4.1942983613812e-06,6.4107272096341e-06,7.5355719556701e-06,-6.8054325839308e-06,1.8571256179278e-05,-9.0004432455238e-07,-9.35147781296e-06,0,8.3943798611197e-06,-0.00071385947203955,0.0004253641664954,-2.9208343008902e-05,-0.00084498481657773,0.00030531651806252,-0.0003817883453255,0.0012103941505013,81.592926025391,46.234477996826,0
-2.1381259836749e-06,1.3119297508168e-08,5.2803913640025e-07,-1.460354656705e-07,-8.4186295467615e-08,3.6443954776056e-08,2.7156376383741e-08,1.1474553718512e-08,4.6162990447373e-08,549,0,0,0,0,0,0,-1.460354656705e-07,-8.4186295467615e-08,3.6443954776056e-08,2.7156376383741e-08,0,4.6162990447373e-08,-1.5428656907696e-05,-6.4758688821242e-06,2.8033811366197e-06,-2.1062075189077e-06,8.8265797834708e-07,-6.4416028324366e-07,1.8827607132251e-05,28.984375,10,20
-0.0099721465688938,-0.0053546808986801,0.00023241763405897,-4.0755701926066e-06,5.8276995240433e-06,1.2807834362454e-06,-4.048125743804e-06,-4.3961147290243e-06,1.2178760020799e-06,550,-5.3100465380039e-06,1.5694891746127e-05,8.6698243570352e-07,-3.5461733920498e-06,-7.3940806968755e-06,8.8562199300537e-06,-9.3927073326972e-06,2.1522124924883e-05,2.1492200817225e-06,-7.5872255309386e-06,0,1.0074112929305e-05,-0.00071191808795036,0.00044828457877256,9.8521802788105e-05,-0.00070980697650401,-0.00033816267146341,-0.00030472991912832,0.0012434201854945,80.17781829834,47.077835083008,20
-1.8327797958285e-06,5.9010621802924e-08,-3.8428858170584e-07,-1.5752934696866e-07,-7.323300545136e-08,-3.4381754140116e-08,3.3232075106979e-08,-4.7680161654043e-09,5.4337918732761e-08,551,0,0,0,0,0,0,-1.5752934696866e-07,-7.323300545136e-08,-3.4381754140116e-08,3.3232075106979e-08,0,5.4337918732761e-08,-1.615375860118e-05,-5.6333081116431e-06,-2.6447503184705e-06,-1.4798030569007e-06,-3.6677047426187e-07,1.4372337585177e-07,1.9023026833642e-05,26.796875,10,0
-0.018177246662852,-0.028082157109279,0.00047863569185298,-1.7285087874541e-06,2.3125761906845e-06,1.6769220075392e-06,6.1419694050279e-07,-3.4892745764925e-07,4.5873348508365e-07,552,0,0,0,0,0,0,-1.7285087874541e-06,2.3125761906845e-06,1.6769220075392e-06,6.1419694050279e-07,0,4.5873348508365e-07,-0.00017078404298883,0.0001778904762065,0.00012899400057994,9.4240899309272e-06,-2.6840573665327e-05,-2.5346374090073e-06,0.0004600782792952,45.15625,60,0
-0.030659812111224,-0.049925422447887,0.0012862324468285,-6.8005519152656e-11,-5.2269451992196e-11,1.7821231513976e-10,6.4758549802801e-11,2.2219016553573e-11,-8.4688365554448e-11,553,0,0,0,0,0,0,-6.8005519152656e-11,-5.2269451992196e-11,1.7821231513976e-10,6.4758549802801e-11,0,-8.4688365554448e-11,-1.0304386179299e-08,-4.0207270763228e-09,1.3708639626136e-08,-9.1765490417315e-11,1.7091551195056e-09,-1.158768205636e-08,2.8016854910511e-08,90.06396484375,110,20
-5.0425928236685e-06,5.5981644062075e-08,1.2229335154236e-06,-4.6348368953944e-07,-2.4119960634632e-07,1.0505297082326e-07,9.7628972852614e-08,3.740928635636e-08,1.377761592804e-07,554,0,0,0,0,0,0,-4.6348368953944e-07,-2.4119960634632e-07,1.0505297082326e-07,9.7628972852614e-08,0,1.377761592804e-07,-4.8810969814943e-05,-1.8553815872794e-05,8.0809977556354e-06,-5.6484573232465e-06,2.8776374120277e-06,-2.5602122134168e-06,5.815515427925e-05,38.828125,10,20
-4.6658038717473e-05,-4.3718613712966e-06,-1.5512218937634e-05,-3.6253039996594e-06,-2.6866744696395e-06,-1.5163669865305e-06,2.4497592792847e-07,-2.1397721672046e-07,1.4679958340181e-06,555,0,0,0,0,0,0,-3.6253039996594e-06,-2.6866744696395e-06,-1.5163669865305e-06,2.4497592792847e-07,0,1.4679958340181e-06,-0.00038919639830339,-0.00020666726689534,-0.0001166436143485,-9.1482557719707e-05,-1.6459785901574e-05,2.5958965948789e-06,0.00056717219570632,63.79638671875,10,0
-0.030659787721129,-0.049956724057007,0.0012504864543901,-2.3373470365093e-09,-1.5822062660196e-09,3.3793436551361e-09,9.8917084177608e-10,1.5261927863537e-09,-4.5678582065247e-10,556,0,0,0,0,0,0,-2.3373470365093e-09,-1.5822062660196e-09,3.3793436551361e-09,9.8917084177608e-10,0,-4.5678582065247e-10,-2.8392834984989e-07,-1.217081743092e-07,2.5994951193354e-07,-2.8042359212552e-08,1.1739944510413e-07,-1.3926979478398e-07,6.6664956032008e-07,71.5625,110,20
-0.009079073207198,0.0020651789209282,-0.00027849090195288,1.1957746515974e-06,-8.5992886131523e-06,-3.6737580533497e-06,8.2212734108974e-06,3.0368175428616e-07,-2.4751444464174e-06,557,-4.9379710316961e-06,-3.5355065497364e-05,-1.4079115803023e-05,2.4630722196939e-05,9.6974459361327e-07,-1.9692751165243e-05,-3.7294642225155e-06,-4.395978994795e-05,-1.7753431735708e-05,3.2838919128032e-05,0,-2.2167551289439e-05,0.00049247710489658,-0.00066148373947325,-0.00028259677333459,0.0010329000863812,2.336013494509e-05,0.00021009871274159,0.0015414627612287,94.934860229492,45.41544342041,20
-0.030658894506563,-0.05,0.0012079917219103,1.5211740535341e-07,-1.28990659882e-07,1.4159222090712e-07,-8.5136955893926e-07,-1.3590562960878e-07,3.2573633754381e-07,558,0,0,0,0,0,0,1.5211740535341e-07,-1.28990659882e-07,1.4159222090712e-07,-8.5136955893926e-07,0,3.2573633754381e-07,-9.8476505137023e-06,-9.9223584524613e-06,1.0891709300548e-05,-8.7038955459292e-05,-1.0454279200675e-05,3.507651962482e-06,0.00010805662615933,47.999908447266,110,20
-0.0030842251287564,0.00035286493809265,-0.0003182601846711,-2.9964499166079e-06,-9.2901861784216e-07,-4.5642624868273e-07,-3.2188389398499e-06,1.1839277895292e-06,2.3618951453569e-06,559,-6.6358368226312e-07,-1.0707807635053e-06,-1.673996673639e-07,-6.2859343105779e-06,1.9561229181219e-06,6.9495179928411e-06,-3.6599029913916e-06,-1.9985499844723e-06,-6.2414706838067e-07,-9.5049031181861e-06,0,9.3114123984768e-06,-0.00045280732307182,-7.1462970603243e-05,-3.5109711437133e-05,-0.00046991417101351,9.1071368425321e-05,-4.0626933689907e-05,0.0011925152030663,89.931686401367,30,0
-0.030646018287914,-0.049983366085808,0.0011920428251273,-1.2966800290301e-06,-2.7387859973186e-06,-2.2920459090532e-06,-6.1643760217865e-07,-7.1118284324835e-07,8.9778920254291e-07,560,0,0,0,0,0,0,-1.2966800290301e-06,-2.7387859973186e-06,-2.2920459090532e-06,-6.1643760217865e-07,0,8.9778920254291e-07,-0.00015832125773303,-0.00021067584594759,-0.00017631122377332,-0.000105994917206,-5.4706372557565e-05,1.0484067772582e-05,0.00053005341900619,35.1953125,100,20
0,0,0,-2.2875225985413e-07,-3.0739018796404e-06,-2.3290109180306e-07,-1.9443658250116e-06,-1.6307571495423e-06,-1.9484163304417e-07,561,0,0,0,0,0,0,-2.2875225985413e-07,-3.0739018796404e-06,-2.3290109180306e-07,-1.9443658250116e-06,0,-1.9484163304417e-07,-0.00015420938832974,-0.00023645399074157,-1.7915468600236e-05,-0.00028617966257262,-0.0001254428576571,-0.00015160087857512,0.000489382633877,67.593826293945,0.013097863644361,0
0,0,0,-1.4668741322213e-10,-2.4172545013821e-08,-5.3946128868276e-11,-2.2607200858559e-08,-1.8702356004857e-09,1.2878181821883e-09,562,0,0,0,0,0,0,-1.4668741322213e-10,-2.4172545013821e-08,-5.3946128868276e-11,-2.2607200858559e-08,0,1.2878181821883e-09,-1.2497107677244e-06,-1.8594265395247e-06,-4.1497022206366e-09,-2.9774425712118e-06,-1.4386427696044e-07,-1.139364183462e-06,3.6990732833512e-06,0,0,5
0,0,0,-1.4501724276461e-09,-2.3320729101317e-08,-4.2247021154625e-10,-1.5626626767672e-08,-3.2568940440436e-09,1.9808849459798e-09,563,0,0,0,0,0,0,-1.4501724276461e-09,-2.3320729101317e-08,-4.2247021154625e-10,-1.5626626767672e-08,0,1.9808849459798e-09,-9.8246985497304e-07,-1.7939022385628e-06,-3.2497708580481e-08,-2.0729663426673e-06,-2.5053031108028e-07,-7.1854236469412e-07,3.4558689912453e-06,5.8746337890625,0,0
-7.6970096858477e-05,-1.6085176422178e-05,-2.8748792978617e-05,-4.7025399218576e-06,-5.1319869128394e-06,-2.7021576417346e-06,-5.9824581190209e-07,-1.609521522958e-06,1.5279612046163e-06,564,-1.2030701495044e-06,-1.471551246883e-06,-5.3124887319279e-07,3.7171394038113e-07,-5.0732720096638e-07,8.3135620912327e-07,-5.9056069870154e-06,-6.6035388761168e-06,-3.2334072059077e-06,-2.2653446044674e-07,0,2.3593169183187e-06,-0.00057939679374732,-0.00039476822406457,-0.00020785828013343,-0.00026368186221228,-0.00012380934791984,-0.00010012747632625,0.0009680197074636,70.208404541016,10.085241317749,0
-0.016680545929867,-0.049933160303564,0.00085961188512642,4.380751775683e-06,-9.0669864768845e-06,-1.7418462368718e-06,4.2089234960993e-06,-1.0038464813759e-06,-2.1748871164846e-06,565,8.7851605581061e-06,-3.0145213832907e-05,-5.5596392358546e-06,5.8568954927252e-06,-3.7685566511807e-06,-1.4642056050831e-05,1.3177322319008e-05,-3.9211274556286e-05,-7.3009392545025e-06,1.0054273776569e-05,0,-1.681680794028e-05,0.00070706483785817,-0.00069746049822189,-0.00013398817206706,0.00069384727789019,-7.7218960105841e-05,0.00020278492307604,0.0014044842124423,10.338136672974,57.520305633545,0
-0.018030958917695,-0.029431251044344,0.00050467267522823,-2.1999786835535e-06,2.2925524736203e-06,-1.5202402614798e-06,7.3928161988006e-07,2.7768557636434e-07,4.5356007578178e-07,566,0,0,0,0,0,0,-2.1999786835535e-06,2.2925524736203e-06,-1.5202402614798e-06,7.3928161988006e-07,0,4.5356007578178e-07,-0.00022733318649786,0.00017635019027849,-0.00011694155857537,-1.2362400798986e-06,2.1360428951103e-05,-2.3214820395151e-05,0.0004672387162675,43.59375,60,20
-0.0010304801348446,0.0022294482212858,-0.00022169805916385,-3.499672019385e-06,5.9698273954702e-06,-6.7375067852385e-07,1.0805872660371e-05,7.6895094234652e-07,-3.1856883732727e-06,567,-1.7036532197348e-05,2.3709310126339e-05,-3.1168041611591e-06,3.3355914164544e-05,3.4021489395887e-06,-1.6319381967195e-05,-2.0539585717152e-05,2.9675574623386e-05,-3.7909484532449e-06,4.4165108296749e-05,0,-1.9505010311884e-05,-3.1483678353835e-05,0.00045921749195925,-5.1826975271065e-05,0.0010689428354736,5.9150072488194e-05,-7.3310901913508e-06,0.0014716242821606,98.27375793457,20.277500152588,20
-0.00029780621369757,0.0014058956624053,-0.00019257351974237,-4.6713646861178e-07,6.7506658533482e-06,-2.4913522186836e-06,8.8785080536354e-06,9.2715114912622e-07,-2.1811699214761e-06,568,-6.3597295102906e-06,1.9684770631519e-05,-6.5845347699145e-06,1.8094657443994e-05,3.7184633255754e-06,-1.1734927933703e-05,-6.8290086713599e-06,2.6434223761219e-05,-9.0761853017016e-06,2.697520305383e-05,0,-1.3915992718923e-05,0.00032350113684991,0.00051928198871909,-0.00019164247836028,0.0010423968693305,7.1319319163555e-05,0.0001916524097065,0.0013205087605912,95.499610900879,14.502939224243,20
0,0,0,-1.5224380229243e-07,-7.1267273486607e-07,-2.8248910522148e-08,-2.1635037773358e-07,1.6727445601504e-07,5.8607972508834e-09,569,0,0,0,0,0,0,-1.5224380229243e-07,-7.1267273486607e-07,-2.8248910522148e-08,-2.1635037773358e-07,0,5.8607972508834e-09,-3.2637987644136e-05,-5.4820979605082e-05,-2.1729931170883e-06,-3.7569262678071e-05,1.2867265847311e-05,-2.0476095371574e-05,0.00010000743771133,49.08203125,0,20
-0.030622062944238,-0.04990929378188,0.0013060636375477,1.4229624259055e-11,2.4136454927911e-12,-8.730828937342e-12,1.5694511955162e-11,-1.1403212356623e-11,-4.4559476495921e-11,570,0,0,0,0,0,0,1.4229624259055e-11,2.4136454927911e-12,-8.730828937342e-12,1.5694511955162e-11,0,-4.4559476495921e-11,2.5023992675215e-10,1.8566503790701e-10,-6.7160222594938e-10,3.6292359568348e-10,-8.7717018127866e-10,-4.2719985928614e-09,5.3007291763118e-09,100,100,9.21875
-0.017428731166204,-0.0085885110082602,0.00019544723279961,8.188181044905e-06,-6.2723576425461e-07,-4.8862180405102e-07,-2.3291243396307e-06,-7.894986840092e-07,-2.292128624665e-06,571,3.9253334080074e-06,2.9441859028399e-07,-9.6262392958404e-08,-2.1713163933795e-06,-7.4664505043616e-07,-1.7540170146279e-06,1.211336227788e-05,-3.32232677942e-07,-5.8480483445002e-07,-4.500287814174e-06,0,-4.0461463830968e-06,0.00083564439272015,-4.8248904942663e-05,-3.7586292619309e-05,2.6620901602015e-05,-6.0730668000708e-05,2.946672583015e-05,0.0010545204798713,75.159255981445,59.359432220459,20
-4.7373173241732e-07,-4.8083975390518e-08,7.1721811648366e-08,-1.3718501100917e-08,-1.5566456526726e-08,5.9624823033543e-09,-3.2654301986241e-10,4.2891826827838e-10,6.2225722577012e-09,572,0,0,0,0,0,0,-1.3718501100917e-08,-1.5566456526726e-08,5.9624823033543e-09,-3.2654301986241e-10,0,6.2225722577012e-09,-1.5065657690943e-06,-1.1974197328251e-06,4.5865248487341e-07,-4.7641514747472e-07,3.2993712944491e-08,2.7362950799405e-08,2.6915896237334e-06,6.297607421875,10,20
-0.021079024374941,-0.046450590709841,0.00064911908765367,-1.3561777224013e-06,5.5604130657729e-06,-1.4218843161458e-07,-5.0106231558682e-06,-4.9246459669866e-06,6.7034909808387e-07,573,7.9514475694553e-09,1.5368355227858e-05,3.4889446283299e-07,-6.6895992281214e-06,-9.3580299625058e-06,6.6816477805519e-06,-1.3547226236404e-06,2.0930054205627e-05,2.0859773656616e-07,-1.1693619485254e-05,0,7.3518903287087e-06,-0.0004329628121185,0.00042772408198253,-1.093757166266e-05,-0.00071407399930827,-0.00037881892053743,-0.00027707613361964,0.0012467138208352,16.717761993408,65.275085449219,0
-0.01375250396254,-0.00054319151660726,0.00025472967721991,6.898246156154e-06,-6.5394093573436e-06,2.2494098606913e-06,1.2398209053458e-06,2.4262409647715e-06,-1.9231679069632e-06,574,1.0041373349477e-05,-1.8307704954795e-05,6.6432921915839e-06,-7.8162980617444e-07,4.0761373407149e-06,-9.2597435433022e-06,1.6947102677492e-05,-2.4845107707896e-05,8.8918540748615e-06,4.5053898567865e-07,0,-1.1182742508634e-05,0.00088918619400434,-0.00050303148902643,0.00017303152774548,0.00045392271317294,0.00018663392036704,0.00021061588145686,0.0012753997349995,88.305435180664,53.714069366455,0
-0.0018981338029409,0.0027352207184507,0.00011608427853182,-3.0761300587755e-06,4.739999640386e-06,1.0923559887942e-06,1.1938261179326e-05,1.1227456710156e-06,-3.5512042599847e-06,575,-1.7995440444989e-05,1.8648137745981e-05,2.0175032794084e-07,3.6125392054763e-05,2.4975503666094e-06,-1.8129951609774e-05,-2.1074607920796e-05,2.3383525792575e-05,1.2937997968639e-06,4.806678682171e-05,0,-2.1681252040348e-05,6.9774237434509e-05,0.00036461535695277,8.4027383753397e-05,0.0012247274095961,8.6365051616581e-05,3.3230068110729e-05,0.0014451448544648,99.340721130371,24.806484222412,0
-1.6911212045781e-05,1.0312677953032e-07,4.4857375084408e-06,-1.455480597999e-06,-7.6523168398661e-07,3.5156063513937e-07,2.5475405915969e-07,1.5150023137924e-07,4.6701184070653e-07,576,0,0,0,0,0,0,-1.455480597999e-06,-7.6523168398661e-07,3.5156063513937e-07,2.5475405915969e-07,0,4.6701184070653e-07,-0.00015428974012297,-5.8863975691278e-05,2.7043125779952e-05,-2.2733228033841e-05,1.165386395225e-05,-6.405706376391e-06,0.00018230790121327,53.241271972656,10,20
-0.015983599868563,-0.049751306651318,0.00055712266723933,9.933304581126e-06,-6.356844232166e-06,1.9445368175463e-06,1.4346874022837e-06,8.1243295955068e-07,-2.6949959883506e-06,577,1.7765631183011e-05,-1.9525151217757e-05,5.2224656544034e-06,-3.4435710503769e-06,1.0112378271003e-06,-1.4322060132634e-05,2.7707128950976e-05,-2.5877895420306e-05,7.1667476804255e-06,-2.0171569638726e-06,0,-1.7016975992044e-05,0.0012644655059554,-0.00048898801785892,0.00014957975519587,0.00061072572296755,6.249484304236e-05,0.00029305776984182,0.0013198939552069,11.309494972229,56.621723175049,20
-5.2258145640212e-06,5.0812683022841e-08,-1.2270027280761e-06,-4.0030467959177e-07,-1.7235023032682e-07,-8.5514793196005e-08,9.0844456626703e-08,-4.3497359573504e-08,1.0941746235549e-07,578,0,0,0,0,0,0,-4.0030467959177e-07,-1.7235023032682e-07,-8.5514793196005e-08,9.0844456626703e-08,0,1.0941746235549e-07,-4.2333596157612e-05,-1.325771002514e-05,-6.5780610150773e-06,-4.5528933715753e-06,-3.3459507364234e-06,-3.1242006232067e-06,4.7025726635651e-05,40.33203125,10,0
-0.030621073990583,-0.049971708339315,0.0012349138295934,-1.5770716310154e-08,-2.5215508534395e-09,-3.9317750275143e-09,3.6890366053297e-09,-3.1310325434956e-09,2.5871922917966e-09,579,0,0,0,0,0,0,-1.5770716310154e-08,-2.5215508534395e-09,-3.9317750275143e-09,3.6890366053297e-09,0,2.5871922917966e-09,-1.7608909130712e-06,-1.9396545026458e-07,-3.0244423288572e-07,-2.6398684264932e-07,-2.4084865719197e-07,-3.4874409753648e-07,2.2555631085157e-06,63.477527618408,110,0
0,0,0,2.6170605205189e-13,-5.1200375449295e-07,-7.7264916421714e-14,-2.1063993289558e-07,1.5090691207229e-07,2.2331070041858e-14,580,0,0,0,0,0,0,2.6170605205189e-13,-5.1200375449295e-07,-7.7264916421714e-14,-2.1063993289558e-07,0,2.2331070041858e-14,-1.2152267302907e-05,-3.9384904191766e-05,-5.9434551093626e-12,-2.835535919534e-05,1.1608224005561e-05,-1.2152285716367e-05,7.2940417580335e-05,44.70703125,0,20
-0.030490945648794,-0.049940051244439,0.0010629385740989,-8.2953893119489e-07,-4.3465304731786e-06,2.294119860015e-06,-5.5006009912181e-06,2.8289475227263e-06,2.1401890830212e-06,581,-2.6664972671982e-06,-9.4445087024104e-06,2.4436394917667e-06,-3.3869252868266e-06,4.0381668537288e-06,6.0534225540248e-06,-3.4957986868567e-06,-1.3791075837936e-05,4.7375835151496e-06,-8.8878443736802e-06,0,8.1936922211451e-06,-0.00030553862005682,-0.00033434849793682,0.00017647075846269,-0.00066485108621245,0.00021761134790202,-7.7098003578666e-05,0.0011479243766615,22.371646881104,98.418762207031,0
-0.023819229241913,-0.049182866766825,0.00062630840512934,2.3591193193623e-06,6.5829014750733e-06,-2.4009832357907e-06,-9.4972281117447e-06,-8.9151155466952e-07,-4.1299895606205e-10,582,1.5360501173062e-05,2.5019186840409e-05,-6.315432206089e-06,-2.4137893384628e-05,-3.4456196267801e-06,8.7773922115659e-06,1.7709522251315e-05,3.1609527871731e-05,-8.7156145026245e-06,-3.3625103471676e-05,0,8.7770594290223e-06,-0.00023036707878012,0.0005063770365441,-0.00018469101813775,-0.0011423938042499,-6.8577811897656e-05,-0.00041186956480461,0.001421384483598,12.140015602112,71.267227172852,0
-0.00063097120889975,0.0016995118982176,0.00011821310599995,-1.7982470086812e-06,6.3450128460379e-06,8.8063886693058e-07,1.0704416714215e-05,-6.219233187358e-07,-3.5268229464798e-06,583,-1.4830778717578e-05,2.4117055154396e-05,7.8832031116976e-07,3.1568819130706e-05,-9.5231583468523e-07,-1.6738040413128e-05,-1.6632571967083e-05,3.0458583247249e-05,1.6688740322908e-06,4.2276770829662e-05,0,-2.0264852103525e-05,0.00017202023543146,0.00048807791123369,6.7741451302352e-05,0.0011337635987311,-4.784025528737e-05,3.90528556008e-05,0.0014449193973436,97.025573730469,17.290458679199,0
-4.3054208652438e-05,0.00094212622824794,-9.7698250008276e-05,5.0716397740127e-06,6.7407342128203e-06,-1.0566336536182e-06,3.4233676482694e-06,4.4871119677388e-08,-3.7721960391166e-06,584,3.7124307707236e-06,1.1532857643589e-05,-2.1064244202191e-06,4.0189646190042e-06,1.9803355346624e-07,-7.7313953897278e-06,8.7834076064785e-06,1.8273520725096e-05,-3.1631106173513e-06,7.4429666331396e-06,0,-1.1503562856453e-05,0.00066259602395283,0.00051851801637079,-8.1279511816784e-05,0.00053580586043411,3.4516245905683e-06,-1.7699038595582e-05,0.0011637740258489,92.520874023438,10.988993644714,20
-0.03062118251029,-0.049953119913697,0.0012561199633301,-1.7575911745337e-09,-6.7522364324244e-10,-2.279954987439e-09,3.2195831576259e-10,-8.6543572587066e-10,-2.8038674266456e-10,585,0,0,0,0,0,0,-1.7575911745337e-09,-6.7522364324244e-10,-2.279954987439e-09,3.2195831576259e-10,0,-2.8038674266456e-10,-2.3420045197003e-07,-5.1940280249418e-08,-1.7538115287992e-07,-7.4235106562626e-08,-6.6571978913127e-08,-1.2056934182625e-07,4.1008195443011e-07,74.4609375,110,0
0,0,0,-9.8760982969746e-16,-2.3753355629904e-08,-5.6434350941505e-10,-2.5778066943487e-08,-3.0153464762061e-09,3.8529863494092e-09,586,0,0,0,0,0,0,-9.8760982969746e-16,-2.3753355629904e-08,-5.6434350941505e-10,-2.5778066943487e-08,0,3.8529863494092e-09,-1.2649086287596e-06,-1.8271812023003e-06,-4.3411039185773e-08,-3.2478367792117e-06,-2.3194972893893e-07,-9.6852498745049e-07,3.8709634619821e-06,0,0,0
-2.3362401096424e-07,-1.4488568803429e-07,-6.4812200226143e-08,-6.0092547819685e-09,-1.5715740646229e-08,-1.3504293534892e-09,-8.7197256852e-09,-5.9683814963689e-10,6.6205496965267e-09,587,0,0,0,0,0,0,-6.0092547819685e-09,-1.5715740646229e-08,-1.3504293534892e-09,-8.7197256852e-09,0,6.6205496965267e-09,-9.3004445076537e-07,-1.208903126633e-06,-1.0387918103763e-07,-1.1385422125524e-06,-4.5910626895145e-08,4.1478970657337e-08,2.5154224372932e-06,0,5,0
-0.01625573018973,-0.0044857793066616,0.00028090864668818,9.598527839063e-06,-3.901740552536e-06,2.4752288862024e-06,-2.0476062478963e-06,2.2403505103818e-06,-1.793432543088e-06,588,1.3838305416547e-05,-9.502524901308e-06,4.6021193676092e-06,-7.3537457365877e-06,3.1802442390016e-06,-6.4845596799588e-06,2.344072189701e-05,-1.3400338719156e-05,7.0767343614035e-06,-9.405328941778e-06,0,-8.2779039071536e-06,0.0010705111250094,-0.00030013388865662,0.00019040222201557,0.00017465465678175,0.00017233465464476,0.00019420648022854,0.0011982385878377,81.338920593262,57.513381958008,0
-0.030828537774353,-0.050395262642809,0.0012097823635907,7.1201365893525e-06,5.3324540382666e-06,-2.0788174148967e-06,-2.3452160659935e-06,-6.9766642596844e-07,-2.2313746230425e-06,589,1.0136051175214e-05,9.1336045251033e-06,-3.0190173709478e-06,-4.7682696813017e-06,7.9889343439221e-07,-5.3677814939126e-06,1.7255811296711e-05,1.44663097422e-05,-5.0979294672535e-06,-7.113153333934e-06,0,-7.5991120624602e-06,0.00069444584727615,0.00041018877217435,-0.00015990903191513,-3.3658203135083e-05,-5.3666648151418e-05,-2.4901169061931e-05,0.001162600008637,12.92510509491,104.52169799805,0
-0.030330280056338,-0.050024253580787,0.0012222953671315,-1.803100682545e-06,-1.8233793971336e-06,9.8033221436991e-08,-6.0911233674163e-06,-1.766636205696e-06,2.8815225287708e-06,590,-1.0673837411992e-07,-3.6929638310157e-06,2.7596084728649e-07,-4.5846335303844e-06,-1.4437087338962e-06,4.6913719045043e-06,-1.9096938566113e-06,-5.5162396184734e-06,3.7401153498078e-07,-1.0675923024973e-05,0,7.5729153603937e-06,-0.00042789437103369,-0.00014025995362566,7.5410170336147e-06,-0.00075774226986995,-0.00013589509274584,-6.7538739394011e-05,0.0011022678895688,18.619432449341,96.292037963867,20
-0.030619605593266,-0.05,0.0012040624763267,5.5128234371172e-08,-1.5330697616235e-07,-1.9583081080284e-07,-7.6017524712409e-07,2.2130748001828e-07,3.5898513318702e-07,591,0,0,0,0,0,0,5.5128234371172e-08,-1.5330697616235e-07,-1.9583081080284e-07,-7.6017524712409e-07,0,3.5898513318702e-07,-1.5724475023327e-05,-1.1792844320181e-05,-1.5063908523296e-05,-7.844012744604e-05,1.7023652309098e-05,7.6491325778913e-06,0.00010665680077886,48.684345245361,110,0
-0.030604189504382,-0.049976148685771,0.0012302552815133,1.1897884486204e-08,1.0354378782006e-08,1.7182779793686e-08,-3.9841665095276e-11,-6.0772400548198e-09,7.0879903731035e-09,592,0,0,0,0,0,0,1.1897884486204e-08,1.0354378782006e-08,1.7182779793686e-08,-3.9841665095276e-11,0,7.0879903731035e-09,2.0082622601433e-06,7.9649067553895e-07,1.321752291822e-06,1.0899756331203e-06,-4.6748000421691e-07,1.6382704052894e-06,3.5198913790932e-06,60.834350585938,100,0
-0.018187446382511,-0.024432213978094,0.00044455361482469,-2.7418039820272e-08,2.320215548049e-06,1.414548204555e-06,7.4604498305395e-09,4.3495076517571e-08,1.1000895286553e-07,593,0,0,0,0,0,0,-2.7418039820272e-08,2.320215548049e-06,1.414548204555e-06,7.4604498305395e-09,0,1.1000895286553e-07,3.0861909489677e-06,0.00017847811908069,0.00010881140035038,5.7691516913378e-06,3.3457751167362e-06,1.3657498078645e-05,0.00037339754975852,50.625,60,0
-0.025202253483701,-0.050049108740686,0.0010465498055534,1.1862928572952e-06,1.3439072971097e-06,1.7543140197131e-06,-7.0471830453825e-06,6.9809530226136e-07,1.275722221065e-07,594,6.76530183233e-06,3.388163756601e-06,4.5633512982054e-06,-1.1353820582478e-05,1.5549672816244e-06,4.5885187501484e-06,7.9500896251187e-06,4.7354108258575e-06,6.3174277148161e-06,-1.8399585294453e-05,0,4.7161777033532e-06,-0.00023951504747619,0.00010337748439306,0.00013494723228562,-0.00087285934768217,5.3699638635489e-05,-0.00032095509633686,0.001210887274971,10.912256240845,74.52961730957,20
0,0,0,-2.7744321365482e-08,-1.4201196228616e-07,-9.1397992670098e-09,-2.5336882451612e-08,-3.2944045244803e-08,-2.3746970238531e-09,595,0,0,0,0,0,0,-2.7744321365482e-08,-1.4201196228616e-07,-9.1397992670098e-09,-2.5336882451612e-08,0,-2.3746970238531e-09,-5.3335574612456e-06,-1.0923997098936e-05,-7.0306148207768e-07,-5.1483698524863e-06,-2.5341573265233e-06,-3.3820478965049e-06,1.9960140771852e-05,27.412109375,0,0
0,0,0,-1.3493934042692e-07,-3.8728453969384e-07,2.3740106648641e-08,-1.2164495779588e-07,1.058614037253e-07,-1.5635611975002e-09,596,0,0,0,0,0,0,-1.3493934042692e-07,-3.8728453969384e-07,2.3740106648641e-08,-1.2164495779588e-07,0,-1.5635611975002e-09,-2.5273094999396e-05,-2.9791118437987e-05,1.8261620498955e-06,-2.4250450181624e-05,8.1431849019461e-06,-1.5013419674056e-05,5.6189457432012e-05,39.6484375,0,20
-0.014226328562947,-0.047402131055632,0.00053858654019813,9.3608041138681e-06,-3.9391067472416e-06,1.4385096417108e-06,-9.9572197289757e-07,1.3580701958786e-06,-2.0981372818027e-06,597,8.9046722754271e-06,-6.1575398604648e-06,2.2800964921182e-06,-3.2275113855511e-06,7.5111484173168e-07,-5.6771608898761e-06,1.8267536114832e-05,-1.0094823084231e-05,3.7184804053618e-06,-4.2253011263428e-06,0,-7.7752901293218e-06,0.0010816163660188,-0.00030300821132628,0.00011065458782391,0.00028496051319063,0.00010446693814451,0.00020015933558254,0.0011250991478238,15.45393371582,53.89119720459,20
-0.011673251885005,-0.039766856702994,0.00041320464210737,1.0688156830398e-05,-3.545326563652e-07,1.4512248575176e-06,-3.5137568749726e-06,1.3736865975854e-06,-2.0465726829809e-06,598,8.9343659595649e-06,-4.9973605800462e-07,1.1610932740894e-06,-5.0373721377656e-06,1.1849721407114e-06,-3.8969938217993e-06,1.9622687510966e-05,-8.5216126681395e-07,2.6121533819354e-06,-8.5513074830302e-06,0,-5.9435527554912e-06,0.0011180020988255,-2.7271742797323e-05,0.00011163268134751,2.5547198412362e-05,0.00010566819981426,0.00013840752087327,0.0010938989418087,27.821544647217,50.161293029785,20
-0.03071239047877,-0.05,0.0011579786637328,6.4530145635356e-06,-2.1613366785082e-06,1.7819239943705e-06,-5.7098653900705e-06,-2.1853133182378e-06,9.5003699137176e-07,599,5.5327133492368e-06,-1.0194460757717e-06,1.7413652831828e-06,-5.0445454155998e-06,-2.0450559986955e-06,-4.8816793363693e-07,1.1985717991715e-05,-3.1807531191401e-06,3.5233153001425e-06,-1.0754415104079e-05,0,4.6188327720073e-07,0.00059406955285872,-0.00016625666757755,0.00013707107649004,-0.00034153659741868,-0.00016810102447983,0.00017076358576919,0.0010115360457588,27.132419586182,109.7183303833,20
0,0,0,-7.8741818523984e-08,-4.2043531416887e-07,1.5260717691646e-09,-1.1183712336743e-07,-1.0506071308963e-07,1.192100156176e-08,600,0,0,0,0,0,0,-7.8741818523984e-08,-4.2043531416887e-07,1.5260717691646e-09,-1.1183712336743e-07,0,1.192100156176e-08,-1.6364251828556e-05,-3.234117801299e-05,1.1739013608958e-07,-1.8910044508821e-05,-8.0815933145872e-06,-9.3901887450371e-06,5.9572459229194e-05,41.904296875,0,0
0,0,0,-2.4494375264752e-07,-1.2871548648884e-06,-6.7956002147106e-08,-4.945007232493e-07,-4.9925598147789e-07,-1.5337092132169e-08,601,0,0,0,0,0,0,-2.4494375264752e-07,-1.2871548648884e-06,-6.7956002147106e-08,-4.945007232493e-07,0,-1.5337092132169e-08,-6.2386917589943e-05,-9.9011912683726e-05,-5.2273847805466e-06,-8.1583607636233e-05,-3.840430626753e-05,-4.472486678107e-05,0.00019132517410166,53.115234375,0,0
9.5928187612238e-05,0.00064830749861632,-9.4891301041588e-05,6.2220637760586e-06,7.2733097273199e-06,-1.1976381675194e-06,9.6583321752804e-07,2.0055055434199e-06,-1.4263369376472e-06,602,8.2581108923154e-06,1.3145529103288e-05,-1.8270692156836e-06,-2.0483255199906e-06,3.341015326632e-06,-6.2097853723249e-06,1.4479669761422e-05,2.0419031536824e-05,-3.0247617277761e-06,-1.0820131581545e-06,0,-7.6360965473277e-06,0.000811017986001,0.00055948536363999,-9.212601288611e-05,0.00040669255842173,0.00015426965718615,0.0002226794695621,0.0011890030542564,89.542137145996,7.4750485420227,20
-0.02992562929585,-0.050295896766571,0.0012447961944964,-2.1062709695196e-06,-3.4620159842788e-06,-8.9918411095776e-08,-6.4341772196084e-06,-2.8803928725083e-06,1.0790676946029e-06,603,1.4287462108065e-06,-6.8198668403114e-06,9.8967110358776e-08,-7.0615599862785e-06,-3.4558742187017e-06,5.6328137754721e-06,-6.768895208327e-07,-1.0281431783747e-05,9.1548898543661e-09,-1.3496392297534e-05,0,6.7119013238413e-06,-0.00059248510310872,-0.0002663089218676,-6.9168008535213e-06,-0.00092540096850016,-0.00022156868250064,-0.00034745905202237,0.0011462604040847,14.77830696106,92.893966674805,20
-0.030646537052305,-0.0499090425371,0.0013054201751139,1.5654633580178e-11,-1.7558210293891e-12,2.4231117382877e-11,2.1992814915668e-11,-1.8429347941749e-11,-4.6368106433724e-11,604,0,0,0,0,0,0,1.5654633580178e-11,-1.7558210293891e-12,2.4231117382877e-11,2.1992814915668e-11,0,-4.6368106433724e-11,7.0108770205915e-10,-1.3506315610685e-10,1.8639321063752e-09,1.1886401124815e-09,-1.4176421493653e-09,-4.0698922990102e-09,6.7984189248134e-09,100,110,13.125
-0.030087719663672,-0.051976325021808,0.0012680744455625,1.6434401711882e-07,9.1260199262011e-06,-1.3223548767871e-06,6.2205398731116e-06,1.3372085075664e-06,-2.6648271467748e-06,605,-4.2564468675474e-06,3.2075171995904e-05,-6.68684755649e-06,1.8064644457816e-05,5.3374013380956e-06,-1.3808197590269e-05,-4.0966171465035e-06,4.1199748539053e-05,-8.0091858688277e-06,2.4289316241847e-05,0,-1.6472642351888e-05,0.00022726050574696,0.0007020015327847,-0.0001017196059067,0.00069312172543871,0.00010286219288972,9.631954678217e-06,0.0014461181062603,3.4105343818665,93.396507263184,0
-0.030643385483651,-0.049989689429802,0.001212762589276,1.4323694929871e-07,-1.4536121667004e-07,-1.6658157933118e-07,-1.5585501129223e-07,3.6869436517034e-09,4.344912936336e-08,606,0,0,0,0,0,0,1.4323694929871e-07,-1.4536121667004e-07,-1.6658157933118e-07,-1.5585501129223e-07,0,4.344912936336e-08,1.2796942294314e-05,-1.1181632051541e-05,-1.281396764086e-05,-1.0210131597297e-05,2.8361105013103e-07,5.1209561454412e-06,3.7120232563764e-05,51.259765625,100,20
-0.017962813855533,-0.037184005340236,0.00060837203202539,-2.0739356962619e-06,4.132072035239e-06,-1.2816101208527e-06,-5.0868616101725e-07,-7.5565209716304e-08,1.2016092644866e-06,607,-1.2638451941507e-07,1.078982114647e-07,-4.8105942880628e-08,7.1014561814173e-08,4.1647733140921e-09,5.5369957600893e-08,-2.2003265263838e-06,4.2399645227741e-06,-1.3297159911799e-06,-4.3766532581742e-07,0,1.2569792594087e-06,-0.00023920731852741,0.00031785169501838,-9.8585393911749e-05,-0.00011880350812397,-5.8127084397157e-06,1.2757678453241e-05,0.00085285859090344,31.875,60,20
-0.030604260561665,-0.049933266528704,0.0012794009048342,-1.4782184066051e-10,1.0138242048992e-10,-1.6191287710535e-10,4.8327206036391e-11,3.488107555471e-11,-4.8452200609586e-13,608,0,0,0,0,0,0,-1.4782184066051e-10,1.0138242048992e-10,-1.6191287710535e-10,4.8327206036391e-11,0,-4.8452200609586e-13,-1.7138939087166e-08,7.7986477299939e-09,-1.2454836700411e-08,-2.0505508797128e-09,2.6831596580546e-09,-5.8052991906734e-09,3.1210494566924e-08,86.19140625,100,0
0,0,0,-1.7037824579893e-08,-5.3148735860912e-08,-9.0318706540759e-11,-1.0498968095741e-08,-8.0497779269865e-09,3.1314363724421e-10,609,0,0,0,0,0,0,-1.7037824579893e-08,-5.3148735860912e-08,-9.0318706540759e-11,-1.0498968095741e-08,0,3.1314363724421e-10,-2.8811970275912e-06,-4.0883642969932e-06,-6.9475928108276e-09,-2.3782080672718e-06,-6.1921368669127e-07,-1.5465071647345e-06,7.4256523592258e-06,16.54296875,0,0
-4.7228318650639e-07,-1.4352134782488e-07,8.0468940261378e-09,-8.7956421160321e-09,-1.3327604450281e-08,-1.1814390497163e-10,-5.9817263586449e-09,-4.2632882400293e-10,7.1975299376482e-09,610,0,0,0,0,0,0,-8.7956421160321e-09,-1.3327604450281e-08,-1.1814390497163e-10,-5.9817263586449e-09,0,7.1975299376482e-09,-1.1138862322157e-06,-1.0252003423293e-06,-9.0879926901256e-09,-8.9743117395512e-07,-3.2794524923302e-08,1.1635777191358e-07,2.1430559354077e-06,0,10,10.625
-0.017597695933334,-0.0085104155724715,0.00029049296027125,9.8438789967937e-06,-1.3303726542555e-06,1.8361342901786e-06,-3.4895478901838e-06,4.4458785900743e-07,-1.8948175196576e-06,611,7.7418876692007e-06,-1.070362167582e-06,1.7945646351936e-06,-4.615452424895e-06,7.8022665808908e-07,-3.1264352443057e-06,1.7586033802209e-05,-2.3991067265937e-06,3.6305618987279e-06,-8.1052849699945e-06,0,-5.0212352452617e-06,0.0010145010913083,-0.00010233635801965,0.00014124109924451,-1.1147130766884e-05,3.4199066077495e-05,0.00011152443619667,0.0010862747506591,74.863662719727,59.410949707031,0
-3.2318893145736e-06,8.6321800953755e-08,-6.2381960286364e-07,-2.3745979579418e-07,-9.3357167547518e-08,-6.2284008582135e-08,5.8785239288044e-08,-2.2754990572706e-08,6.0589775059518e-08,612,0,0,0,0,0,0,-2.3745979579418e-07,-9.3357167547518e-08,-6.2284008582135e-08,5.8785239288044e-08,0,6.0589775059518e-08,-2.5078721683011e-05,-7.1813205805783e-06,-4.7910775832411e-06,-2.2906420613014e-06,-1.7503838902082e-06,-2.1518316173419e-06,2.7531207271618e-05,34.111328125,10,0
-4.5901670715825e-07,-1.4208299641927e-07,-3.9605631477088e-08,-1.0569026966527e-08,-1.2496206524119e-08,-1.3473161662724e-09,-3.8316072702066e-09,1.5215249063625e-10,6.65839252268e-09,613,0,0,0,0,0,0,-1.0569026966527e-08,-1.2496206524119e-08,-1.3473161662724e-09,-3.8316072702066e-09,0,6.65839252268e-09,-1.2596698655437e-06,-9.6124665570146e-07,-1.0363970509788e-07,-7.4140681198054e-07,1.170403774125e-08,6.5516249010736e-08,2.0514675365006e-06,0,10,5.15625
5.8568862466416e-05,3.3373655110427e-05,-3.8025278508097e-05,7.5912787760097e-06,8.2627918279806e-07,-5.0474130613128e-07,-2.1633159684924e-06,1.81632528191e-06,-1.9414574470388e-06,614,4.6946830101471e-06,2.1955363003339e-06,-1.0455298299173e-06,-2.7136868639176e-06,-1.0548181283997e-07,-1.9809961462295e-06,1.2285932222948e-05,3.0218533211803e-06,-1.5502756202456e-06,-4.8769743529425e-06,0,-3.9224525095272e-06,0.00078508906125911,6.3559937138313e-05,-3.8826254317791e-05,3.4735619374336e-05,0.00013971732937769,5.1801659486154e-05,0.0010622292887609,77.879196166992,1.1679221391678,20
-3.3366977252086e-05,-3.097818515169e-06,1.2986619246677e-05,-2.378292633639e-06,-1.648500499404e-06,7.7695707491251e-07,2.4152632125426e-07,1.4490985722634e-07,8.7766269803225e-07,615,0,0,0,0,0,0,-2.378292633639e-06,-1.648500499404e-06,7.7695707491251e-07,2.4152632125426e-07,0,8.7766269803225e-07,-0.00025558618033872,-0.00012680773072339,5.9765928839424e-05,-5.4061645346933e-05,1.1146912094334e-05,-5.1280779024718e-06,0.00034091997142169,60.99365234375,10,20
0,0,0,-5.0149510709474e-09,-3.5232014523833e-08,-1.2921298609852e-09,-8.0235843137828e-09,-5.7250864768895e-09,-2.6766048942941e-10,616,0,0,0,0,0,0,-5.0149510709474e-09,-3.5232014523833e-08,-1.2921298609852e-09,-8.0235843137828e-09,0,-2.6766048942941e-10,-1.1534306135821e-06,-2.7101549633718e-06,-9.9394604691173e-08,-1.384863939954e-06,-4.4039126745304e-07,-7.8825441500377e-07,4.829958698604e-06,12.3046875,0,0
-0.03064288198116,-0.049908600544962,0.001306063439439,-1.2073978717313e-11,1.7920351849366e-11,1.1822234844692e-11,2.0424744016364e-11,-6.8773702081753e-12,-9.4456697829038e-12,617,0,0,0,0,0,0,-1.2073978717313e-11,1.7920351849366e-11,1.1822234844692e-11,2.0424744016364e-11,0,-9.4456697829038e-12,-9.9193516001564e-10,1.3784886037974e-09,9.094026803609e-10,1.5079665887288e-09,-5.2902847755194e-10,-7.8975754967644e-10,4.7674393129712e-09,100,100,20
-0.030659812551921,-0.049908600359144,0.0013054200109184,-1.8100746375895e-11,5.5241093689246e-12,2.852905055401e-11,2.226767571447e-11,-6.7985440157439e-12,-1.7695378596888e-11,618,0,0,0,0,0,0,-1.8100746375895e-11,5.5241093689246e-12,2.852905055401e-11,2.226767571447e-11,0,-1.7695378596888e-11,-2.1728525630484e-09,4.2493148991728e-10,2.1945423503084e-09,9.3241067467202e-10,-5.2296492428799e-10,-2.1416704262017e-09,5.3873014190608e-09,100,110,20
-0.017911710231306,-0.012338495117595,0.00027645310645849,9.2456734565273e-06,1.9609230503226e-06,-1.1406313708442e-06,-3.9332910282292e-06,-1.1160694528073e-06,-7.8145606061975e-07,619,3.5825414045548e-06,6.5926732899476e-07,-5.3419505748456e-07,-2.4411716604865e-06,-4.4497895750646e-07,-1.1413697440683e-06,1.2828098105819e-05,2.6207623286353e-06,-1.6747925281162e-06,-6.3743461108712e-06,0,-1.9228256272693e-06,0.00097260524863739,0.0001508402346402,-8.7740874680323e-05,-4.1161250190035e-05,-8.5851496369795e-05,0.00020128759347223,0.0010411436944696,69.353042602539,59.969440460205,20
-0.00064397667554815,0.00029252293954833,4.1096738147672e-05,4.5095298352132e-07,-2.6808415668862e-06,-1.3642005506788e-06,-5.832831875271e-06,3.3137332801671e-06,-6.4961179355422e-07,620,2.7043245791154e-06,-5.9353355522339e-06,-1.4349442098846e-06,-6.329771901835e-06,4.9326171139777e-06,3.6254473227196e-06,3.1557092651033e-06,-8.6158615357133e-06,-2.7992822047195e-06,-1.2163031499057e-05,0,2.9758315486493e-06,-0.00031328192541974,-0.00020621858206817,-0.00010493850389837,-0.00079664999148069,0.00025490256001286,-0.00039794075442555,0.0011565074386749,85.596557617188,17.864278793335,20
-0.030645463174549,-0.049993988493363,0.0012044396987571,2.2713025070214e-07,-6.6013607840445e-07,-6.726064080016e-07,-2.6457428199761e-07,-1.8796567131802e-07,7.6412470300064e-08,621,0,0,0,0,0,0,2.2713025070214e-07,-6.6013607840445e-07,-6.726064080016e-07,-2.6457428199761e-07,0,7.6412470300064e-08,1.971973691966e-05,-5.0779698338804e-05,-5.1738954461661e-05,-1.8103688672628e-05,-1.4458897793694e-05,8.126061504116e-06,0.00013797408270873,45.654296875,100,20
-5.6151030545435e-05,-1.2364280315698e-05,2.3869245290044e-05,-3.3582708891642e-06,-3.4300571318503e-06,2.2627485439514e-06,-1.4298191616558e-07,4.8799282590691e-07,1.6051663257554e-06,622,-7.1603825597216e-09,-9.9399175687597e-09,5.866078111896e-09,9.8753864570097e-10,2.3201120798119e-09,6.1728439140206e-09,-3.3654312716865e-06,-3.4399970498472e-06,2.2686146212646e-06,-1.41994378104e-07,0,1.6113391702162e-06,-0.00036771813452653,-0.00026385054860387,0.00017405758030395,-0.00012038821352664,3.7537909685147e-05,1.408472815959e-05,0.00067488857603099,67.5390625,10,20
-0.030642765152824,-0.04998018530158,0.0012244289584206,3.733737063678e-08,-2.7239189522133e-08,-4.5042441961024e-08,-3.7166535354449e-08,2.0594698694636e-08,1.4677436027785e-08,623,0,0,0,0,0,0,3.733737063678e-08,-2.7239189522133e-08,-4.5042441961024e-08,-3.7166535354449e-08,0,1.4677436027785e-08,3.7287364707206e-06,-2.0953222709333e-06,-3.4648032277711e-06,-2.0023332209124e-06,1.5842075918951e-06,1.985664577721e-06,1.0468527044537e-05,57.6171875,100,20
-0.030604209162299,-0.04996630307741,0.0012416806562087,-2.0142662781491e-09,2.299757654434e-09,3.3789406474182e-10,-8.8949122041737e-10,-2.0175306676723e-09,4.8526269908889e-09,624,0,0,0,0,0,0,-2.0142662781491e-09,2.299757654434e-09,3.3789406474182e-10,-8.8949122041737e-10,0,4.8526269908889e-09,-4.2508781454408e-08,1.7690443495646e-07,2.5991851133986e-08,4.4012376832649e-08,-1.5519466674402e-07,4.8571377770236e-07,8.4323182200864e-07,66.6748046875,100,0
-0.030659759252278,-0.049963374173017,0.0012428988363059,-9.4744568176365e-09,-4.9284898074939e-09,4.4076026041735e-09,-2.807139707861e-10,4.0877729056092e-09,3.286450776994e-09,625,0,0,0,0,0,0,-9.4744568176365e-09,-4.9284898074939e-09,4.4076026041735e-09,-2.807139707861e-10,0,3.286450776994e-09,-1.1019997558622e-06,-3.7911460057645e-07,3.3904635416719e-07,-3.9478876764289e-07,3.1444406966224e-07,-1.2039147935211e-07,1.3842263785529e-06,67.625,110,20
-0.016075345804039,-0.0046044335511158,0.00010608990606674,8.9366654273211e-06,-3.9429305556692e-06,-2.190397252381e-06,-2.575662962623e-06,8.2526461604339e-07,-1.7226035754419e-06,626,9.8704642032399e-06,-9.5410029599782e-06,-4.4033080771612e-06,-5.5386117343637e-06,9.1570386289916e-07,-4.3318524688762e-06,1.8811048547503e-05,-1.3481224773516e-05,-6.5938840924046e-06,-8.1182269776422e-06,0,-6.0544226806045e-06,0.00095503573802025,-0.0003033023504361,-0.000168492096337,6.9472015716856e-05,6.3481893541799e-05,0.00013509196857694,0.0011695094768202,81.557960510254,57.344245910645,20
-0.0048401915278684,-0.00015799467586503,-0.00034913030998176,-1.5558161470473e-06,-1.1118424335232e-06,2.0554017537325e-06,-9.050205782121e-06,8.7220031136137e-07,2.1328193528258e-06,627,7.3694559071603e-06,2.3998720811212e-07,4.6204925790848e-06,-2.1062192225607e-05,1.527447866982e-06,1.3692736318447e-05,5.8127465025439e-06,-8.6737885027089e-07,6.6755573985815e-06,-3.0111618062113e-05,0,1.5825668983227e-05,-0.00060851677533109,-8.5526341040248e-05,0.00015810782721019,-0.0011850082857214,6.7092331643182e-05,-0.00032477558303316,0.0013123174769503,89.087745666504,35.470386505127,0
-0.019044366373826,-0.051836557320543,0.00094320268488926,1.2916971915495e-06,-8.5095920227479e-06,-3.7463848934453e-06,6.1602822567433e-06,7.1645493133909e-07,-1.1198896206282e-06,628,-5.6187865846609e-06,-3.0596358866818e-05,-1.2845488009066e-05,1.6396313915842e-05,1.8598554031864e-06,-1.0777527331181e-05,-4.3155384369209e-06,-3.9110421603612e-05,-1.6592103390106e-05,2.254466213122e-05,0,-1.1897033866634e-05,0.00046467419709984,-0.00065458400174984,-0.00028818345334195,0.00083918074057629,5.5111917795315e-05,0.00027916751924002,0.0014578098720047,6.4599103927612,61.508522033691,0
0,0,0,-2.80238463897e-16,-2.4364243215769e-08,9.2139562813983e-12,-1.9839119674282e-08,1.7334594404974e-09,1.3140816776975e-09,629,0,0,0,0,0,0,-2.80238463897e-16,-2.4364243215769e-08,9.2139562813983e-12,-1.9839119674282e-08,0,1.3140816776975e-09,-1.0687522298351e-06,-1.8741725550591e-06,7.0876586779987e-10,-2.5948383370692e-06,1.3334303388441e-07,-9.6766900230154e-07,3.6299225107311e-06,0,0,20
0,0,0,-3.2889635404306e-09,-2.6526562347795e-08,9.7559395961994e-10,-1.1738134395279e-08,4.7515540424135e-09,2.0341722558753e-09,630,0,0,0,0,0,0,-3.2889635404306e-09,-2.6526562347795e-08,9.7559395961994e-10,-1.1738134395279e-08,0,2.0341722558753e-09,-1.002589061562e-06,-2.0405047959842e-06,7.5045689201533e-08,-1.6525252811657e-06,3.6550415710873e-07,-5.9311707723078e-07,3.7961703662579e-06,6.904296875,0,20
-0.030564985459402,-0.049919517833988,0.0012145383355032,-3.5632470071396e-06,-5.4447921654812e-06,-1.2201769266884e-06,-3.4978969004544e-06,-3.2029759708669e-06,3.5314090115819e-07,631,-3.4142451867603e-06,-6.6493811237622e-06,-1.5679323838529e-06,8.1495801241474e-09,-2.7810503805233e-06,3.4060956066361e-06,-6.9773724723727e-06,-1.2094199983514e-05,-2.7881130810111e-06,-3.4898593849755e-06,0,3.7592288509125e-06,-0.00066109609707433,-0.00041883016657547,-9.3859763591417e-05,-0.00065606916579086,-0.00024638276698976,-0.00035983548874374,0.0011031479555723,24.706796646118,99.220428466797,20
-0.030604241905336,-0.049956533594487,0.0012528728744591,-3.8782297176131e-09,1.3774729622198e-09,-2.0915958537727e-09,1.1790741678809e-09,-4.8602310031704e-10,1.3837733347418e-09,632,0,0,0,0,0,0,-3.8782297176131e-09,1.3774729622198e-09,-2.0915958537727e-09,1.1790741678809e-09,0,1.3837733347418e-09,-3.7421279837353e-07,1.0595945863229e-07,-1.6089198875174e-07,1.4810577433698e-08,-3.738639233208e-08,3.0556667192233e-08,6.0631395114122e-07,72.451171875,100,0
0,0,0,-2.4606737359199e-07,-2.1437221077806e-06,-1.1283814765064e-07,-1.0569473968496e-06,-9.0796526853052e-07,-5.0883279278811e-08,633,0,0,0,0,0,0,-2.4606737359199e-07,-2.1437221077806e-06,-1.1283814765064e-07,-1.0569473968496e-06,0,-5.0883279278811e-08,-9.703776237556e-05,-0.00016490170059851,-8.6798575115874e-06,-0.00015941314877999,-6.9843482194656e-05,-8.2023601274546e-05,0.00032197521987204,60.15625,0,0
-0.021131469184102,-0.05316386331307,0.00061798897214422,1.4760720195414e-07,-8.2425569068262e-06,1.7726029901563e-06,8.4211738258002e-06,6.9116327843099e-07,-2.6166450108145e-06,634,-8.1104794150021e-06,-2.9437949424749e-05,6.3947267934203e-06,2.3545944067019e-05,1.1007362216167e-06,-1.5435464652017e-05,-7.9526955850567e-06,-3.7685923014087e-05,8.1668652014479e-06,3.1956788179876e-05,0,-1.8051956577879e-05,0.00035474686266608,-0.00063404283898663,0.00013635407616587,0.00099117506450039,5.3166406033153e-05,0.00014211207706849,0.0014499744389453,3.7706241607666,65.654220581055,20
-0.030647842950155,-0.04999234617278,0.0011981657449911,-3.7424709811517e-07,-1.2302304183097e-06,-1.4221301301544e-06,-1.9304856647552e-07,-4.3164279224914e-07,1.5960024706066e-07,635,0,0,0,0,0,0,-3.7424709811517e-07,-1.2302304183097e-06,-1.4221301301544e-06,-1.9304856647552e-07,0,1.5960024706066e-07,-5.2309127789437e-05,-9.4633109100748e-05,-0.00010939462539649,-3.8370779201772e-05,-3.3203291711473e-05,-1.1243947391297e-05,0.00026464183020427,40.9375,100,20
-1.55259199778e-06,-6.5826426816727e-08,3.8852389835338e-07,-9.7570039667881e-08,-5.9124085747089e-08,2.5839503116718e-08,1.2936838062779e-08,7.3087209680486e-09,3.4456392919783e-08,636,0,0,0,0,0,0,-9.7570039667881e-08,-5.9124085747089e-08,2.5839503116718e-08,1.2936838062779e-08,0,3.4456392919783e-08,-1.0400203552452e-05,-4.5480065959299e-06,1.9876540859014e-06,-1.899674496247e-06,5.6220930523451e-07,-2.4432412263124e-07,1.2872803929049e-05,24.19921875,10,20
-0.023032006994384,-0.048945199561483,0.0010816017614267,-3.7491579016839e-08,-1.7463697599147e-06,-1.1700755048576e-06,-4.6471912546815e-06,2.2661452664447e-06,7.1779508115152e-07,637,1.7091268050492e-06,-8.3953014071537e-07,-1.4502577698562e-06,-7.3653507197314e-06,5.4240960614411e-06,5.6562239146823e-06,1.6706131938252e-06,-2.584279006956e-06,-2.6214750412712e-06,-1.2011605170438e-05,0,6.3741042240659e-06,-0.00023174287641746,-0.00013433613537805,-9.0005808065966e-05,-0.0005863351591609,0.0001743188666496,-0.00017364390255836,0.0012498424585867,13.05747127533,69.429122924805,19.999769210815
-6.8507051477828e-07,-2.4685360539764e-09,1.462242589751e-07,-3.4533989479749e-08,-2.4099714097679e-08,1.3059691716875e-08,4.7948825031655e-09,3.9602794152043e-09,1.1359803957329e-08,638,0,0,0,0,0,0,-3.4533989479749e-08,-2.4099714097679e-08,1.3059691716875e-08,4.7948825031655e-09,0,1.1359803957329e-08,-3.7168051341684e-06,-1.85382416136e-06,1.0045916705289e-06,-6.9150728932884e-07,3.0463687809264e-07,-1.8651333131623e-07,5.0002183579488e-06,14.08203125,10,20
-0.011580415469291,-0.018389975130447,0.00021285445791462,-6.0123950402379e-06,2.0868987765923e-06,-1.3999364893087e-06,1.8628991783534e-06,1.535055510838e-07,1.7352825522784e-06,639,0,0,0,0,0,0,-6.0123950402379e-06,2.0868987765923e-06,-1.3999364893087e-06,1.8628991783534e-06,0,1.7352825522784e-06,-0.00060177346326481,0.00016053067512249,-0.00010768742225452,4.0183997037518e-06,1.1808119314138e-05,-5.7982638404827e-06,0.00071260616870047,59.6875,50,0
-0.030621190957817,-0.049940255093151,0.0012707880644948,-5.9322596412151e-10,-4.9683323574587e-10,-8.9130028301171e-10,3.0357811588116e-10,-1.4920113344847e-10,-1.0106296267195e-10,640,0,0,0,0,0,0,-5.9322596412151e-10,-4.9683323574587e-10,-8.9130028301171e-10,3.0357811588116e-10,0,-1.0106296267195e-10,-6.8173774792748e-08,-3.8217941211221e-08,-6.856156023167e-08,8.1115443822671e-10,-1.1477010265267e-08,-3.0315082373551e-08,1.6178980962071e-07,82.0625,110,0
-0.012476318472097,-0.043539208405728,0.00045280233032573,8.7161912291031e-06,-9.8038025391899e-07,1.569341223357e-06,-3.1176391281716e-06,1.2408844264398e-06,-1.2379805371859e-06,641,6.4917070945107e-06,-2.4311165635437e-06,1.555524554528e-06,-3.7122376631617e-06,7.319411650837e-07,-2.779469431349e-06,1.5208741668522e-05,-3.4100955629314e-06,3.1247483150897e-06,-6.8307239144776e-06,0,-4.0174461902992e-06,0.00092204768476249,-7.5413865686076e-05,0.00012071855564284,1.1753041895205e-05,9.5452648187678e-05,0.00015634216427872,0.0010824264164428,21.901523590088,51.273593902588,20
-0.0116228942096,-0.01445590625071,0.00015428263344467,-4.6128230492459e-06,4.1221767023251e-06,-1.6994541727907e-06,8.0965340029129e-07,-3.1606200140309e-07,1.8170946967218e-06,642,-6.4536688017417e-08,4.7855597499134e-08,-2.8573538036023e-08,2.7148100561256e-08,1.4002832043517e-09,3.7388587456161e-08,-4.6773611507709e-06,4.1700309693834e-06,-1.7280276771746e-06,8.3680289686748e-07,0,1.8544833016707e-06,-0.00046941378949388,0.00031709051556347,-0.00013072724406082,-5.230021645256e-05,-2.4312461646392e-05,2.5195267888252e-05,0.00082948560699618,65.625,50,0
-0.030608551422131,-0.049986173004275,0.0011708477994503,-8.3498123564832e-07,-1.9658670685261e-06,1.461315804451e-06,-3.6720872051774e-07,5.7663768342403e-07,4.0356928852223e-07,643,0,0,0,0,0,0,-8.3498123564832e-07,-1.9658670685261e-06,1.461315804451e-06,-3.6720872051774e-07,0,4.0356928852223e-07,-0.00011030359510625,-0.00015122054373277,0.00011240890803469,-7.4321093942355e-05,4.4356744878772e-05,-1.5030477862358e-05,0.000355695062218,36.3232421875,100,0
0,0,0,2.2349733116676e-11,-2.3849122747815e-08,-2.3429228867495e-10,-2.0520350689453e-08,1.3364487113477e-09,5.8679778569443e-10,644,0,0,0,0,0,0,2.2349733116676e-11,-2.3849122747815e-08,-2.3429228867495e-10,-2.0520350689453e-08,0,5.8679778569443e-10,-1.147004049605e-06,-1.8345479036781e-06,-1.8022483744227e-08,-2.727211774418e-06,1.0280374702675e-07,-1.1035849686375e-06,3.5684730392264e-06,0,0,10.15625
-0.030683648623755,-0.05,0.0011727672082377,4.963902426194e-06,-2.1002813047132e-06,1.8406683523752e-06,-3.7803457389714e-06,-7.347927457214e-07,5.0977167411136e-07,645,0,0,0,0,0,0,4.963902426194e-06,-2.1002813047132e-06,1.8406683523752e-06,-3.7803457389714e-06,0,5.0977167411136e-07,0.00047953066901497,-0.00016156010036256,0.00014158987325963,-0.00019310380522853,-5.6522518901646e-05,0.00013690522654707,0.00070495666713495,33.089805603027,110,20
-2.4508105390699e-07,-1.2367648874202e-07,5.0810857515399e-08,-5.8417708210405e-09,-1.7456924392706e-08,2.1091250451466e-09,-7.9033209495444e-09,6.4403451176276e-10,6.8641462953535e-09,646,0,0,0,0,0,0,-5.8417708210405e-09,-1.7456924392706e-08,2.1091250451466e-09,-7.9033209495444e-09,0,6.8641462953535e-09,-8.4634460980493e-07,-1.3428403379005e-06,1.622403880882e-07,-1.0049253889206e-06,4.9541116289443e-08,1.3103362991769e-07,2.6877658184805e-06,0,5,20
-0.0007708726429044,0.00015178809212183,-0.00021960619059576,2.4128107207538e-07,-4.61518472499e-06,8.9680123850263e-07,-8.0267875416187e-06,-3.0804837953392e-06,-3.9354332024405e-07,647,6.7848390373517e-06,-1.3599182998572e-05,2.5838371423774e-06,-1.4015959454476e-05,-5.0139282234802e-06,7.2311204171242e-06,7.0271402636358e-06,-1.8213490566858e-05,3.4808529361235e-06,-2.2043804446195e-05,0,6.8376143927716e-06,-0.00045330817463578,-0.00035501420961462,6.8984710654048e-05,-0.0010893134526123,-0.00023696029194917,-0.00050214082019881,0.0012505339856831,85.771469116211,17.979110717773,0
-0.030659700811591,-0.049974044284068,0.0012307428233072,-3.6015695286906e-09,-1.0329628543417e-08,4.0364570967996e-09,-1.7486649745469e-09,8.2944977022381e-09,-4.2429254303876e-10,648,0,0,0,0,0,0,-3.6015695286906e-09,-1.0329628543417e-08,4.0364570967996e-09,-1.7486649745469e-09,0,-4.2429254303876e-10,-6.101896010306e-07,-7.9458681103207e-07,3.1049669975382e-07,-4.6765848148109e-07,6.3803828478754e-07,-3.6578367905738e-07,2.5462591196719e-06,61.297828674316,110,20
0.00011761440175584,0.00040303192155688,4.638054290214e-05,5.2960299336999e-06,3.540343471932e-06,-5.1815180395482e-07,-1.183534139914e-06,-1.7930798341277e-06,-2.0099289407184e-06,649,6.0915729421162e-06,5.2531479503212e-06,1.3924338289706e-08,-2.5324166844473e-06,-1.5746126057119e-06,-3.5591562576689e-06,1.1387436486488e-05,8.7935570134353e-06,-5.0424788276558e-07,-3.7157772497759e-06,0,-5.5690923836449e-06,0.00052868885180774,0.00027233411322554,-3.9857831073448e-05,3.0260846145126e-05,-0.00013792921800982,-3.3307984685982e-05,0.0011273274273323,87.678215026855,5.8431949615479,0
-5.1275374209825e-07,-1.8039890376752e-08,-5.7308705609888e-08,-2.0863234677635e-08,-1.8633802459648e-08,-8.3443719336634e-09,2.3908483531502e-09,-2.9412789018626e-09,8.423678076807e-09,650,0,0,0,0,0,0,-2.0863234677635e-08,-1.8633802459648e-08,-8.3443719336634e-09,2.3908483531502e-09,0,8.423678076807e-09,-2.1845973741072e-06,-1.4333694199729e-06,-6.4187476412795e-07,-3.9582175635447e-07,-2.262522232202e-07,6.8242068542205e-08,3.5072677606259e-06,9.0234375,10,0
-0.018722529073589,-0.04304580509175,0.00071316400444446,-4.143543000042e-06,3.3981373604467e-06,-7.8333690218588e-07,-4.0009400082809e-06,3.9392026385686e-06,1.0650042614848e-06,651,-2.8290990470899e-06,5.3821081289817e-06,-4.3988397142241e-07,-1.9302437635843e-06,2.7000516955676e-06,4.7593428106742e-06,-6.9745526586445e-06,8.7800320641589e-06,-1.2235658424299e-06,-5.9293238408728e-06,0,5.8243977526792e-06,-0.00072716554309005,0.00026139518157282,-6.0256684783529e-05,-0.00071619608218534,0.0003030155875822,-0.00032650806143414,0.0010416694082046,22.749771118164,61.415370941162,20
-0.030612709615835,-0.049909605190121,0.0013060638258113,-5.8155494682912e-12,6.4915283371029e-12,-2.1259389253443e-11,1.8689130493296e-11,-7.1164357115337e-12,-1.7405895836954e-11,652,0,0,0,0,0,0,-5.8155494682912e-12,6.4915283371029e-12,-2.1259389253443e-11,1.8689130493296e-11,0,-1.7405895836954e-11,-7.088296597887e-10,4.993483336233e-10,-1.6353376348802e-09,1.1761457218718e-09,-5.4741813165644e-10,-1.6003947650704e-09,4.2043256270279e-09,100,100,4.375
-0.030659812431807,-0.049917002911427,0.0012958364486502,-2.4348326358675e-11,-7.0273456892034e-12,6.0522387875244e-11,2.8685915260943e-11,-1.778980123474e-13,-3.8907741946572e-11,653,0,0,0,0,0,0,-2.4348326358675e-11,-7.0273456892034e-12,6.0522387875244e-11,2.8685915260943e-11,0,-3.8907741946572e-11,-3.8673800878386e-09,-5.4056505301564e-10,4.6555682980957e-09,2.121769598243e-10,-1.3684462488261e-11,-4.9873351330615e-09,9.627725893632e-09,95.037109375,110,20
-0.018039155977513,-0.024317401464841,0.00043739908981378,3.4540834535003e-07,2.5062126790675e-06,-1.3764874398914e-06,1.81714593109e-08,-1.4561866987859e-07,-1.5481730231601e-07,654,0,0,0,0,0,0,3.4540834535003e-07,2.5062126790675e-06,-1.3764874398914e-06,1.81714593109e-08,0,-1.5481730231601e-07,3.8613863239132e-05,0.0001927855906975,-0.00010588364922242,1.3441795082276e-05,-1.1201436144507e-05,1.3496726482132e-07,0.00039928907249439,51.25,60,20
-0.017992398978434,-0.016103376800207,0.00032904408984056,4.7537903990052e-06,2.7131920836866e-06,-1.5762927933404e-06,-2.1918302970702e-06,3.7867285400993e-07,-1.1960788005051e-06,655,8.0998383697025e-07,4.4723171280235e-07,-1.175692868888e-07,-6.2705174590996e-07,-1.1712745935999e-07,-1.8293209106029e-07,5.5636886094001e-06,3.1605586322759e-06,-1.6938520443056e-06,-2.8187962645861e-06,0,-1.3790110433841e-06,0.00044447702885212,0.0002087070833605,-0.00012125329179541,-8.9801486230596e-05,2.9128681077687e-05,-1.3205217264056e-05,0.0006963404541363,63.59375,60,20
-0.01125355156081,-0.0093551552792695,0.00020050591084286,-3.759361692488e-06,5.3732926360775e-06,2.5191435923179e-06,-2.117145126916e-06,-1.7796056504963e-06,1.1538457425003e-06,656,-4.6163624514364e-06,1.0300436317788e-05,2.2973851124914e-06,-9.4835171994321e-07,-3.6690358699414e-06,5.5647141713796e-06,-8.3798605629232e-06,1.5672914691831e-05,4.8172638728438e-06,-3.0613446465443e-06,0,6.7185441325638e-06,-0.00056164288462814,0.00041333020277519,0.00019378027633215,-0.00043531853343029,-0.00013689274234587,-0.0001837038511675,0.0011654307092669,73.875450134277,49.47428894043,20
-0.030636278838839,-0.049909384000862,0.0013054205018068,2.5660696996908e-11,-7.7582814523306e-12,8.1767234590359e-12,1.9243108715972e-11,-2.1825663635802e-11,-5.1929290394814e-11,657,0,0,0,0,0,0,2.5660696996908e-11,-7.7582814523306e-12,8.1767234590359e-12,1.9243108715972e-11,0,-5.1929290394814e-11,1.5685833450352e-09,-5.9679088094851e-10,6.2897872761815e-10,1.0749227080402e-09,-1.678897202754e-09,-4.3998772235588e-09,7.0879197854012e-09,100,110,7.8125
-0.030604261418017,-0.049909886380693,0.0013060638436548,-1.4106933203299e-11,9.4439502128618e-12,-2.8857931882361e-11,1.6301817012869e-11,-8.1099281787575e-12,-9.7460135103067e-12,658,0,0,0,0,0,0,-1.4106933203299e-11,9.4439502128618e-12,-2.8857931882361e-11,1.6301817012869e-11,0,-9.7460135103067e-12,-1.5207908060655e-09,7.2645770868168e-10,-2.2198409140278e-09,8.1834382594747e-10,-6.2384062913519e-10,-1.1853354450661e-09,4.7982069129571e-09,100,100,0
-7.9849643685904e-06,-2.1211745601179e-07,-1.9660415458985e-06,-7.3191290306148e-07,-3.3170885698228e-07,-1.0083110690866e-07,1.1759266707365e-07,-5.6652036730793e-08,2.4174190567302e-07,659,0,0,0,0,0,0,-7.3191290306148e-07,-3.3170885698228e-07,-1.0083110690866e-07,1.1759266707365e-07,0,2.4174190567302e-07,-7.7795896215199e-05,-2.5516065921714e-05,-7.7562389929742e-06,-1.2449313897112e-05,-4.3578489792918e-06,-2.8993724663906e-06,8.5789964014948e-05,44.84375,10,0
-0.030729761834842,-0.050907306128334,0.0013933658544275,3.7380392314087e-06,8.1220312654177e-06,-2.5122289038703e-06,4.6457392815718e-06,9.4804116100412e-07,-3.072851867465e-06,660,5.0154604450357e-06,2.619161280651e-05,-7.8065513649433e-06,9.4191780071221e-06,3.1617944022597e-06,-1.4434638452158e-05,8.7509388095172e-06,3.4313412423654e-05,-1.0318869257064e-05,1.4067214777504e-05,0,-1.7507226941506e-05,0.00059394109350348,0.00062477163580136,-0.0001932483772208,0.00066376417428526,7.2926243154163e-05,7.0026393590125e-05,0.0013805411087875,7.7360110282898,99.940948486328,0
-1.3767641934697e-05,-5.7001456528025e-07,-3.3438411375484e-06,-1.0675137042798e-06,-6.1410307816358e-07,-1.5810046046559e-07,1.4332283230276e-07,-1.9318923561059e-08,4.0784021540089e-07,661,0,0,0,0,0,0,-1.0675137042798e-06,-6.1410307816358e-07,-1.5810046046559e-07,1.4332283230276e-07,0,4.0784021540089e-07,-0.00011190589974708,-4.7238698320275e-05,-1.2161573881968e-05,-1.876462770226e-05,-1.4860710431584e-06,1.5828633052884e-06,0.00013620244744664,50.09033203125,10,0
-0.030810397695481,-0.050832989313943,0.00097211355700938,5.9815264841713e-06,6.0042524170152e-06,1.2432468057321e-06,1.5307279991513e-06,-1.3433244766317e-06,-2.1514493855172e-06,662,5.271621878984e-06,1.029104746908e-05,1.8964139080534e-06,3.8036775864252e-07,-6.475154992877e-07,-5.6519896376265e-06,1.1252554106104e-05,1.6295394498542e-05,3.1396641877721e-06,1.9116579559808e-06,0,-7.8034069642795e-06,0.00076939463904042,0.00046186557053963,9.5634369671697e-05,0.00042702552480811,-0.00010333265204859,0.00014378111060284,0.0011511218816667,9.7581653594971,102.04862976074,20
-4.8632576269899e-07,-1.6832269640887e-07,3.2483475267538e-08,-6.3366512559001e-10,-1.1272226509642e-08,1.2714441327692e-09,-1.1911006344297e-08,1.0608659420422e-09,5.0660682959363e-09,663,0,0,0,0,0,0,-6.3366512559001e-10,-1.1272226509642e-08,1.2714441327692e-09,-1.1911006344297e-08,0,5.0660682959363e-09,-4.8020134661948e-07,-8.670943468955e-07,9.7803394828399e-08,-1.3476891326739e-06,8.1605072464782e-08,-4.176031419438e-08,1.9706913322655e-06,0,10,15.3125
-4.5660763922182e-07,-1.6459265665322e-07,6.9962513123516e-08,-3.5028637835659e-09,-1.2141599580545e-08,2.555473339014e-09,-9.8330349169955e-09,1.9819666138317e-10,7.134684061087e-09,664,0,0,0,0,0,0,-3.5028637835659e-09,-1.2141599580545e-08,2.555473339014e-09,-9.8330349169955e-09,0,7.134684061087e-09,-6.2721344332091e-07,-9.3396919850349e-07,1.9657487223184e-07,-1.114149684354e-06,1.5245897029474e-08,1.9105946780624e-07,2.0590829338713e-06,0,10,20
-0.030614446668925,-0.049909886324715,0.0013056770999112,-8.3249290365324e-12,-1.1729005631948e-11,-1.8715862809349e-11,1.5967389714218e-11,-1.1533014603762e-11,-2.1258420198514e-11,665,0,0,0,0,0,0,-8.3249290365324e-12,-1.1729005631948e-11,-1.8715862809349e-11,1.5967389714218e-11,0,-2.1258420198514e-11,-1.425915282858e-09,-9.0223120245754e-10,-1.4396817545653e-09,4.4272462104593e-10,-8.8715496952013e-10,-2.420799218395e-09,4.6797382332743e-09,100,106.015625,0
-0.030642882096181,-0.049920174343244,0.0012928629446803,-3.114419882895e-11,3.4767627841626e-11,5.6552056015104e-11,2.1238424763305e-11,8.8845453073674e-12,-7.2092025390279e-12,666,0,0,0,0,0,0,-3.114419882895e-11,3.4767627841626e-11,5.6552056015104e-11,2.1238424763305e-11,0,-7.2092025390279e-12,-3.3831100986504e-09,2.6744329108943e-09,4.350158155008e-09,6.4632248536924e-10,6.8342656210518e-10,-1.5419565378871e-09,1.1274439116209e-08,93.1640625,100,20
-0.030621192988901,-0.049909886266367,0.0013054208255821,1.6779636026779e-11,-2.1370756336929e-11,-1.4327021582748e-11,1.7827479288121e-11,-1.5963323769966e-11,-3.587064693794e-11,667,0,0,0,0,0,0,1.6779636026779e-11,-2.1370756336929e-11,-1.4327021582748e-11,1.7827479288121e-11,0,-3.587064693794e-11,1.2178451776538e-09,-1.64390433361e-09,-1.1020785832883e-09,1.2984485054493e-09,-1.2279479823051e-09,-2.832176588863e-09,6.2566893024482e-09,100,110,0
-4.2439106193544e-07,-1.5223031073745e-07,-6.9584388413215e-08,-8.7419015389865e-09,-1.254403695968e-08,-4.023080912592e-09,-2.1603327728801e-09,-6.0557511626127e-11,5.3174856219874e-09,668,0,0,0,0,0,0,-8.7419015389865e-09,-1.254403695968e-08,-4.023080912592e-09,-2.1603327728801e-09,0,5.3174856219874e-09,-9.9465100433814e-07,-9.649259199754e-07,-3.0946776250707e-07,-4.8837648386842e-07,-4.6582701250867e-09,8.6840315736772e-08,2.0203198295146e-06,0,10,0
-0.020461479773336,-0.046223064568305,0.00091504520104519,-9.6587316135988e-07,4.2766568515931e-06,4.6195154346779e-07,-8.6670158038993e-06,3.39847477167e-06,1.5451723219795e-06,669,1.887217294747e-06,1.463763620367e-05,8.7156555660905e-07,-1.270114898327e-05,7.2667102531727e-06,1.0813931688523e-05,9.1442888634488e-07,1.8916838284017e-05,1.3323355385148e-06,-2.1361383657991e-05,0,1.2359238128366e-05,-0.00054089697260151,0.0003289736039687,3.5534734112907e-05,-0.0011332925604892,0.0002614211362823,-0.00034773962772925,0.0012791866096987,17.668571472168,64.491546630859,20
-0.0038079977781046,0.0032168619436898,-0.00029870510551995,-4.0923317275137e-06,-6.9652206150335e-07,-8.6593901867863e-07,1.057412448997e-05,3.8982608590554e-07,-2.3917734412214e-06,670,-1.8048148547291e-05,-5.6601519355136e-06,-2.1597471642956e-06,3.1253876760663e-05,1.2408712916256e-06,-1.3205728213373e-05,-2.2138901834014e-05,-6.3628646845257e-06,-3.0256616909275e-06,4.1826330056262e-05,0,-1.5597408901013e-05,-7.8832095122113e-05,-5.3578620115642e-05,-6.661069374451e-05,0.0010493568446843,2.9986621992734e-05,5.1980080746522e-05,0.0013659436407515,99.766716003418,32.515926361084,20
-0.017848271002321,-0.051325337562216,0.00055220250245149,4.5949496318327e-06,-7.5505731197031e-06,3.4541315688731e-06,5.9056669584552e-06,-1.0079913484816e-06,-4.1319854051217e-06,671,8.7932142431908e-06,-2.6313345515291e-05,9.9445078116543e-06,1.0602256576863e-05,-2.8704669246202e-06,-1.9395470820054e-05,1.3398427690162e-05,-3.3863915129224e-05,1.3398964134073e-05,1.6497575151765e-05,0,-2.3527371656761e-05,0.00072087869390056,-0.00058081331690024,0.00026570242837485,0.00082170310364076,-7.7537796037049e-05,4.9575998750223e-05,0.0014028916984851,8.2046375274658,59.557220458984,20
-0.030633377569031,-0.049908917095654,0.0013060634903265,1.1672701119654e-11,6.7970862060949e-12,2.585096388366e-14,1.088564650589e-11,-9.657755409074e-12,-2.8620535500701e-11,672,0,0,0,0,0,0,1.1672701119654e-11,6.7970862060949e-12,2.585096388366e-14,1.088564650589e-11,0,-2.8620535500701e-11,5.481584779451e-10,5.2285278508422e-10,1.9885356833585e-12,4.8761581534786e-10,-7.4290426223646e-10,-2.5513212620823e-09,3.8008541048219e-09,100,100,15.078125
