disp_x,disp_y,id,vonmises_stress_nodal,x,y,z
0,0,0,83.5,0,0,0
0,0,1,83.5,0.035714285714286,0,0
2.3915608616232e-05,2.2575741676365e-05,2,83.5,0.035714285714286,0.035714285714286,0
6.7032108670921e-05,5.0602645706831e-05,3,83.5,0,0.035714285714286,0
0,0,4,81.727103260342,0.071428571428571,0,0
1.2858411483187e-05,1.6204667340686e-05,5,82.613551630171,0.071428571428571,0.035714285714286,0
0,0,6,76.238040982959,0.10714285714286,0,0
1.0400171907002e-05,1.4540269045443e-05,7,79.468694560124,0.10714285714286,0.035714285714286,0
0,0,8,70.20514913514,0.14285714285714,0,0
8.9210157595378e-06,1.41089300398e-05,9,74.174226702541,0.14285714285714,0.035714285714286,0
0,0,10,65.854401755243,0.17857142857143,0,0
7.5430375331629e-06,1.3526083635296e-05,11,69.060663013152,0.17857142857143,0.035714285714286,0
0,0,12,62.217209018371,0.21428571428571,0,0
6.3891496049171e-06,1.3096261728004e-05,13,65.195224358012,0.21428571428571,0.035714285714286,0
0,0,14,59.306503446882,0.25,0,0
5.3678671228206e-06,1.2728345625032e-05,15,61.990724911579,0.25,0.035714285714286,0
0,0,16,56.927710848351,0.28571428571429,0,0
4.4405351204277e-06,1.242763235724e-05,17,59.415238948809,0.28571428571429,0.035714285714286,0
0,0,18,54.976415749426,0.32142857142857,0,0
3.5809788787293e-06,1.217196088752e-05,19,57.313774982259,0.32142857142857,0.035714285714286,0
0,0,20,53.373443032196,0.35714285714286,0,0
2.7660018991023e-06,1.1953887705023e-05,21,55.604466816163,0.35714285714286,0.035714285714286,0
0,0,22,52.059709334378,0.39285714285714,0,0
1.9802141856151e-06,1.1762807652597e-05,23,54.218130128691,0.39285714285714,0.035714285714286,0
0,0,24,50.987926903747,0.42857142857143,0,0
1.210310491218e-06,1.1590621629313e-05,25,53.099037283169,0.42857142857143,0.035714285714286,0
0,0,26,50.109880563549,0.46428571428571,0,0
4.4921962967949e-07,1.1428377572e-05,27,52.19079091476,0.46428571428571,0.035714285714286,0
0,0,28,49.36803999366,0.5,0,0
-3.0222439521607e-07,1.1263077931557e-05,29,51.417609528117,0.5,0.035714285714286,0
0,0,30,48.675656812063,0.53571428571429,0,0
-1.0210512944852e-06,1.108906327568e-05,31,50.690195501467,0.53571428571429,0.035714285714286,0
0,0,32,47.984808238609,0.57142857142857,0,0
-1.6545301254156e-06,1.0884208459661e-05,33,49.893022453294,0.57142857142857,0.035714285714286,0
0,0,34,47.724147637769,0.60714285714286,0,0
-2.0779702096181e-06,1.0768557425388e-05,35,49.223299437885,0.60714285714286,0.035714285714286,0
0,0,36,48.802179879463,0.64285714285714,0,0
-2.3786580174997e-06,1.0968820417216e-05,37,49.984908705579,0.64285714285714,0.035714285714286,0
0,0,38,51.792548502302,0.67857142857143,0,0
-2.7909337995851e-06,1.1605011602812e-05,39,53.537155489504,0.67857142857143,0.035714285714286,0
0,0,40,56.102437325021,0.71428571428571,0,0
-3.6266920160037e-06,1.2461749088355e-05,41,59.049829078827,0.71428571428571,0.035714285714286,0
0,0,42,60.50936252141,0.75,0,0
-4.8377476275763e-06,1.3176868005132e-05,43,64.125955708536,0.75,0.035714285714286,0
0,0,44,64.31412612974,0.78571428571429,0,0
-6.2556166406939e-06,1.3637400008422e-05,45,67.870299208864,0.78571428571429,0.035714285714286,0
0,0,46,67.562240689355,0.82142857142857,0,0
-7.7012794342178e-06,1.3841874682612e-05,47,71.09531482169,0.82142857142857,0.035714285714286,0
0,0,48,70.975003713029,0.85714285714286,0,0
-9.0980958894843e-06,1.4143367366509e-05,49,74.973570361732,0.85714285714286,0.035714285714286,0
0,0,50,76.387004561483,0.89285714285714,0,0
-1.0530400794253e-05,1.4542271694151e-05,51,79.481673145206,0.89285714285714,0.035714285714286,0
0,0,52,81.710775079152,0.92857142857143,0,0
-1.2851018831446e-05,1.6168080817229e-05,53,82.605387539576,0.92857142857143,0.035714285714286,0
0,0,54,83.5,0.96428571428571,0,0
-2.2489383361479e-05,2.1296489946201e-05,55,83.5,0.96428571428571,0.035714285714286,0
0,0,56,83.5,1,0,0
-5.768041777191e-05,4.4025569777653e-05,57,83.5,1,0.035714285714286,0
6.4959675706344e-05,6.4960461303502e-05,58,83.5,0.035714285714286,0.071428571428571,0
8.7721470778178e-05,9.3815523819756e-05,59,83.5,0,0.071428571428571,0
3.6000915609654e-05,4.0340548338481e-05,60,83.5,0.071428571428571,0.071428571428571,0
2.2934293360405e-05,3.1686777016123e-05,61,83.099674068644,0.10714285714286,0.071428571428571,0
1.843908000084e-05,2.900754358853e-05,62,80.600676871709,0.14285714285714,0.071428571428571,0
1.584116313968e-05,2.7994918858216e-05,63,75.689263893787,0.17857142857143,0.071428571428571,0
1.3419474400553e-05,2.6949404099496e-05,64,70.960388095312,0.21428571428571,0.071428571428571,0
1.1308465515267e-05,2.6158749564418e-05,65,67.388007112695,0.25,0.071428571428571,0
9.3948097955578e-06,2.5492838185896e-05,66,64.418641134306,0.28571428571429,0.071428571428571,0
7.6254078874297e-06,2.4944265251527e-05,67,62.039668329908,0.32142857142857,0.071428571428571,0
5.960180245686e-06,2.4479317263807e-05,68,60.118469429511,0.35714285714286,0.071428571428571,0
4.3635993238086e-06,2.4080435076795e-05,69,58.583478619912,0.39285714285714,0.071428571428571,0
2.8106761900236e-06,2.3727590578723e-05,70,57.370399929233,0.42857142857143,0.071428571428571,0
1.2800151211093e-06,2.3400091870211e-05,71,56.41981509782,0.46428571428571,0.071428571428571,0
-2.3903334638784e-07,2.3074483166087e-05,72,55.668428682843,0.5,0.071428571428571,0
-1.7446947409801e-06,2.2709965982638e-05,73,55.039002461764,0.53571428571429,0.071428571428571,0
-3.2066240734423e-06,2.2309716855473e-05,74,54.451233096823,0.57142857142857,0.071428571428571,0
-4.576251102815e-06,2.1857872018593e-05,75,53.467040059159,0.60714285714286,0.071428571428571,0
-5.5437999588718e-06,2.2061680512034e-05,76,53.260648154182,0.64285714285714,0.071428571428571,0
-6.6253727964845e-06,2.3578623813278e-05,77,57.656533515418,0.67857142857143,0.071428571428571,0
-8.3485898266604e-06,2.5797090677877e-05,78,65.064780420663,0.71428571428571,0.071428571428571,0
-1.0804094224745e-05,2.7405360663017e-05,79,70.327569181415,0.75,0.071428571428571,0
-1.3230179353559e-05,2.8101357955075e-05,80,73.739315804863,0.78571428571429,0.071428571428571,0
-1.5756511139319e-05,2.8777811914254e-05,81,77.591981670058,0.82142857142857,0.071428571428571,0
-1.8629184582412e-05,2.9055259710573e-05,82,81.187223255599,0.85714285714286,0.071428571428571,0
-2.2788236272897e-05,3.1267753927779e-05,83,83.038170864464,0.89285714285714,0.071428571428571,0
-3.3543473496053e-05,3.8391956962889e-05,84,83.5,0.92857142857143,0.071428571428571,0
-5.5865965380074e-05,5.7453220914741e-05,85,83.5,0.96428571428571,0.071428571428571,0
-7.3717130505457e-05,8.029815329655e-05,86,83.5,1,0.071428571428571,0
8.9863343684691e-05,0.00010103449262168,87,83.5,0.035714285714286,0.10714285714286,0
0.0001127416823329,0.00012330301868517,88,83.5,0,0.10714285714286,0
6.6521531557639e-05,7.6588066641155e-05,89,83.5,0.071428571428571,0.10714285714286,0
4.2965661482899e-05,5.599286598691e-05,90,83.5,0.10714285714286,0.10714285714286,0
2.9918776117274e-05,4.6451443741271e-05,91,83.279024736738,0.14285714285714,0.10714285714286,0
2.4331952714974e-05,4.307840976135e-05,92,81.14334889924,0.17857142857143,0.10714285714286,0
2.0870452559044e-05,4.1637970154932e-05,93,76.736921601634,0.21428571428571,0.10714285714286,0
1.7626027675997e-05,4.027231905603e-05,94,72.553976783461,0.25,0.10714285714286,0
1.4716899644016e-05,3.9209593253071e-05,95,69.394310667613,0.28571428571429,0.10714285714286,0
1.2029019748976e-05,3.8318840075058e-05,96,66.756835988381,0.32142857142857,0.10714285714286,0
9.5040024577105e-06,3.7579130172238e-05,97,64.646747365412,0.35714285714286,0.10714285714286,0
7.0975792916144e-06,3.695021644484e-05,98,62.963523934887,0.39285714285714,0.10714285714286,0
4.7656606067609e-06,3.6405853629672e-05,99,61.656199476646,0.42857142857143,0.10714285714286,0
2.474928802415e-06,3.5915576262521e-05,100,60.687660912336,0.46428571428571,0.10714285714286,0
1.9007963526025e-07,3.544214843159e-05,101,60.039763323341,0.5,0.10714285714286,0
-2.1239088936473e-06,3.4950505003588e-05,102,59.713752033926,0.53571428571429,0.10714285714286,0
-4.5060513646519e-06,3.4371916636413e-05,103,59.654148469522,0.57142857142857,0.10714285714286,0
-6.9869525715629e-06,3.3818011831947e-05,104,59.475387426528,0.60714285714286,0.10714285714286,0
-9.5247215656422e-06,3.316396833404e-05,105,56.727640394002,0.64285714285714,0.10714285714286,0
-1.1767490442477e-05,3.5985629671513e-05,106,63.874517396735,0.67857142857143,0.10714285714286,0
-1.4888875112695e-05,4.0370396013793e-05,107,74.79272913682,0.71428571428571,0.10714285714286,0
-1.7457399335683e-05,4.2122754159045e-05,108,76.989773447656,0.75,0.10714285714286,0
-2.0338261693896e-05,4.3340995849749e-05,109,79.307924094088,0.78571428571429,0.10714285714286,0
-2.3856179555585e-05,4.4254147769849e-05,110,82.027787193046,0.82142857142857,0.10714285714286,0
-2.9375255650821e-05,4.6987472436492e-05,111,83.451154750381,0.85714285714286,0.10714285714286,0
-4.0489704254996e-05,5.2575555391167e-05,112,83.5,0.89285714285714,0.10714285714286,0
-5.6927513252231e-05,6.8109933354317e-05,113,83.5,0.92857142857143,0.10714285714286,0
-7.5137340086592e-05,8.7876333116117e-05,114,83.5,0.96428571428571,0.10714285714286,0
-9.3925944357174e-05,0.00010602541725459,115,83.5,1,0.10714285714286,0
0.00011283187283884,0.00013299322288267,116,83.5,0.035714285714286,0.14285714285714,0
0.0001348564031879,0.00015593466776892,117,83.5,0,0.14285714285714,0
9.0162428699143e-05,0.00011061064820911,118,83.5,0.071428571428571,0.14285714285714,0
6.7669701894791e-05,8.8299767439852e-05,119,83.5,0.10714285714286,0.14285714285714,0
4.7183018042211e-05,7.0163049556787e-05,120,83.5,0.14285714285714,0.14285714285714,0
3.4527547290675e-05,6.0545860268807e-05,121,83.337547140984,0.17857142857143,0.14285714285714,0
2.827823566985e-05,5.6825478114221e-05,122,81.491826653892,0.21428571428571,0.14285714285714,0
2.4151039870413e-05,5.5102048293798e-05,123,77.645537404498,0.25,0.14285714285714,0
2.0247145687552e-05,5.3531461187523e-05,124,74.024836006726,0.28571428571429,0.14285714285714,0
1.6664458556108e-05,5.2281333025373e-05,125,71.299212981872,0.32142857142857,0.14285714285714,0
1.3305755178279e-05,5.1231364401824e-05,126,69.016994196785,0.35714285714286,0.14285714285714,0
1.0106866411514e-05,5.0353680100585e-05,127,67.200365189275,0.39285714285714,0.14285714285714,0
7.0256709976368e-06,4.960354505422e-05,128,65.790738350909,0.42857142857143,0.14285714285714,0
4.0079211107153e-06,4.8949685100423e-05,129,64.774820618956,0.46428571428571,0.14285714285714,0
1.0055091073292e-06,4.8353960016963e-05,130,64.167892423208,0.5,0.14285714285714,0
-2.042526537402e-06,4.7765859310469e-05,131,63.997207708535,0.53571428571429,0.14285714285714,0
-5.2207780435444e-06,4.7159718886376e-05,132,64.196463935226,0.57142857142857,0.14285714285714,0
-8.6028864692473e-06,4.6403304269353e-05,133,64.382289303051,0.60714285714286,0.14285714285714,0
-1.238892596224e-05,4.5791933118464e-05,134,60.036897595945,0.64285714285714,0.14285714285714,0
-1.5344508297676e-05,4.4497063239349e-05,135,69.313593667141,0.67857142857143,0.14285714285714,0
-1.9218884688366e-05,4.5774276085072e-05,136,82.476559132472,0.71428571428571,0.14285714285714,0
-2.1594970123126e-05,4.8240614444361e-05,137,82.283478714072,0.75,0.14285714285714,0
-2.5077987807552e-05,5.0488410392434e-05,138,83.031844433219,0.78571428571429,0.14285714285714,0
-3.1369774148266e-05,5.4136888340125e-05,139,83.5,0.82142857142857,0.14285714285714,0
-4.2918363904763e-05,6.1334595297569e-05,140,83.5,0.85714285714286,0.14285714285714,0
-6.1635271422585e-05,7.4849298416055e-05,141,83.5,0.89285714285714,0.14285714285714,0
-7.633599707434e-05,9.599286899522e-05,142,83.5,0.92857142857143,0.14285714285714,0
-9.4020670373999e-05,0.00011542566448785,143,83.5,0.96428571428571,0.14285714285714,0
-0.00011278752934118,0.00013543782379452,144,83.5,1,0.14285714285714,0
0.00013512318920067,0.00016548369564056,145,83.5,0.035714285714286,0.17857142857143,0
0.00015811279781925,0.00018829943099417,146,83.5,0,0.17857142857143,0
0.00011264287567972,0.00014296799224285,147,83.5,0.071428571428571,0.17857142857143,0
9.0102426550533e-05,0.00012091374126351,148,83.5,0.10714285714286,0.17857142857143,0
6.8383727556211e-05,0.0001000961000216,149,83.5,0.14285714285714,0.17857142857143,0
4.9610940482684e-05,8.3648506783856e-05,150,83.5,0.17857142857143,0.17857142857143,0
3.7259918694718e-05,7.4261287154586e-05,151,83.378673298743,0.21428571428571,0.17857142857143,0
3.0513411155308e-05,7.0346058450554e-05,152,81.826201907933,0.25,0.17857142857143,0
2.5849470890273e-05,6.8459982770231e-05,153,78.543593416546,0.28571428571429,0.17857142857143,0
2.1409473088746e-05,6.6772137222728e-05,154,75.437749904232,0.32142857142857,0.17857142857143,0
1.7250923786299e-05,6.5405333439611e-05,155,73.111067246815,0.35714285714286,0.17857142857143,0
1.3312186746643e-05,6.4251129271155e-05,156,71.170526246889,0.39285714285714,0.17857142857143,0
9.5179038554519e-06,6.3283780531291e-05,157,69.632445821032,0.42857142857143,0.17857142857143,0
5.8321739037511e-06,6.2455619028366e-05,158,68.496980192287,0.46428571428571,0.17857142857143,0
2.1922964056124e-06,6.1736811379977e-05,159,67.779918103527,0.5,0.17857142857143,0
-1.4632716695208e-06,6.1082757348637e-05,160,67.456848760892,0.53571428571429,0.17857142857143,0
-5.1873455852103e-06,6.0414909717488e-05,161,67.397954662157,0.57142857142857,0.17857142857143,0
-9.0666176149788e-06,5.9665881289098e-05,162,66.817928653364,0.60714285714286,0.17857142857143,0
-1.2868461543076e-05,5.8392021989826e-05,163,64.075476493938,0.64285714285714,0.17857142857143,0
-1.6192843431358e-05,5.4690275299677e-05,164,72.71289337716,0.67857142857143,0.17857142857143,0
-2.2623326412309e-05,5.3052331677523e-05,165,83.5,0.71428571428571,0.17857142857143,0
-2.7384980591508e-05,5.5072191169293e-05,166,83.5,0.75,0.17857142857143,0
-3.3515612955329e-05,6.0259589849449e-05,167,83.5,0.78571428571429,0.17857142857143,0
-4.4594879105147e-05,6.8637135090089e-05,168,83.5,0.82142857142857,0.17857142857143,0
-6.1747898285532e-05,8.2071452660307e-05,169,83.5,0.85714285714286,0.17857142857143,0
-8.2312271183099e-05,9.937781595603e-05,170,83.5,0.89285714285714,0.17857142857143,0
-9.7995735848673e-05,0.00012116514008673,171,83.5,0.92857142857143,0.17857142857143,0
-0.00011448064827267,0.00014344632795037,172,83.5,0.96428571428571,0.17857142857143,0
-0.00013367072449787,0.00016497044254576,173,83.5,1,0.17857142857143,0
0.0001579973133315,0.00019835712945877,174,83.5,0.035714285714286,0.21428571428571,0
0.000181556905172,0.00022184179318822,175,83.5,0,0.21428571428571,0
0.00013482821838162,0.00017559049531354,176,83.5,0.071428571428571,0.21428571428571,0
0.00011208599555237,0.00015332498752759,177,83.5,0.10714285714286,0.21428571428571,0
8.963524810358e-05,0.00013179150336143,178,83.5,0.14285714285714,0.21428571428571,0
6.850191074125e-05,0.00011216762343413,179,83.5,0.17857142857143,0.21428571428571,0
5.0701108532332e-05,9.6930605202293e-05,180,83.5,0.21428571428571,0.21428571428571,0
3.8477585611184e-05,8.7823208792695e-05,181,83.43410736234,0.25,0.21428571428571,0
3.1261041705172e-05,8.3748026871179e-05,182,82.19581046776,0.28571428571429,0.21428571428571,0
2.6132161748232e-05,8.1772731560899e-05,183,79.471826247369,0.32142857142857,0.21428571428571,0
2.1257539454214e-05,8.0033582779015e-05,184,76.813929179558,0.35714285714286,0.21428571428571,0
1.6601365298209e-05,7.8607175520102e-05,185,74.794000852185,0.39285714285714,0.21428571428571,0
1.216509325581e-05,7.739015743727e-05,186,73.121895150468,0.42857142857143,0.21428571428571,0
7.8639186736299e-06,7.6374991540336e-05,187,71.800942279725,0.46428571428571,0.21428571428571,0
3.6647296357218e-06,7.5513668318657e-05,188,70.865133758837,0.5,0.21428571428571,0
-4.8119970917266e-07,7.4763907254835e-05,189,70.253492841546,0.53571428571429,0.21428571428571,0
-4.612799848816e-06,7.4027099770398e-05,190,69.699439860323,0.57142857142857,0.21428571428571,0
-8.6469316105864e-06,7.310093552912e-05,191,68.830177597677,0.60714285714286,0.21428571428571,0
-1.2504467092282e-05,7.1381288980746e-05,192,68.898104617303,0.64285714285714,0.21428571428571,0
-1.6278670920095e-05,6.7232504940929e-05,193,76.509765853408,0.67857142857143,0.21428571428571,0
-2.5837611998227e-05,6.3791097081015e-05,194,83.5,0.71428571428571,0.21428571428571,0
-3.5202068364685e-05,6.5619702434297e-05,195,83.5,0.75,0.21428571428571,0
-4.6585520482177e-05,7.3983268557997e-05,196,83.5,0.78571428571429,0.21428571428571,0
-6.2065043766796e-05,8.7849299167936e-05,197,83.5,0.82142857142857,0.21428571428571,0
-8.132167252957e-05,0.00010524164218441,198,83.5,0.85714285714286,0.21428571428571,0
-0.00010354852510662,0.00012485872865771,199,83.5,0.89285714285714,0.21428571428571,0
-0.00012022809558602,0.00014725196813322,200,83.5,0.92857142857143,0.21428571428571,0
-0.00013775511272048,0.00017077184839357,201,83.5,0.96428571428571,0.21428571428571,0
-0.00015666091166203,0.00019522819454937,202,83.5,1,0.21428571428571,0
0.00018132139957819,0.00023203902626193,203,83.5,0.035714285714286,0.25,0
0.0002055459761539,0.00025586735141867,204,83.5,0,0.25,0
0.00015750163568946,0.0002087731060821,205,83.5,0.071428571428571,0.25,0
0.00013406766256513,0.00018616614085647,206,83.5,0.10714285714286,0.25,0
0.0001110717071904,0.00016419221665867,207,83.5,0.14285714285714,0.25,0
8.867169976775e-05,0.00014324322528424,208,83.5,0.17857142857143,0.25,0
6.7961646461631e-05,0.00012460815218768,209,83.5,0.21428571428571,0.25,0
5.0708034234465e-05,0.00011026615201506,210,83.5,0.25,0.25,0
3.8447559918125e-05,0.00010139016565878,211,83.5,0.28571428571429,0.25,0
3.073558155547e-05,9.7122038883128e-05,212,82.540554558991,0.32142857142857,0.25,0
2.515205081285e-05,9.5088246692208e-05,213,80.385855978115,0.35714285714286,0.25,0
1.992469579421e-05,9.3349996219341e-05,214,78.117861379732,0.39285714285714,0.25,0
1.4854480424935e-05,9.188637887548e-05,215,76.245550937832,0.42857142857143,0.25,0
1.0004713362269e-05,9.0642867547558e-05,216,74.782004384225,0.46428571428571,0.25,0
5.2934947452582e-06,8.9622948508293e-05,217,73.644215212076,0.5,0.25,0
6.8481174264672e-07,8.8750913409867e-05,218,72.850495494155,0.53571428571429,0.25,0
-3.8227995095697e-06,8.7920682457704e-05,219,72.33286752553,0.57142857142857,0.25,0
-8.2343695747854e-06,8.6821804261344e-05,220,72.131155820692,0.60714285714286,0.25,0
-1.2492596415964e-05,8.510252533466e-05,221,74.877276946194,0.64285714285714,0.25,0
-1.7073537506016e-05,8.1960679908966e-05,222,80.563694961952,0.67857142857143,0.25,0
-3.0108202623456e-05,7.8782499424475e-05,223,83.5,0.71428571428571,0.25,0
-4.5319751502071e-05,8.1877352864405e-05,224,83.5,0.75,0.25,0
-6.2254162438378e-05,9.2395311380592e-05,225,83.5,0.78571428571429,0.25,0
-8.0918707832389e-05,0.00010958702184441,226,83.5,0.82142857142857,0.25,0
-0.00010210395353851,0.00012978636248654,227,83.5,0.85714285714286,0.25,0
-0.00012537951127568,0.00015161227146456,228,83.5,0.89285714285714,0.25,0
-0.00014350126019215,0.00017468795386574,229,83.5,0.92857142857143,0.25,0
-0.00016237923054803,0.0001992536465775,230,83.5,0.96428571428571,0.25,0
-0.00018274610365595,0.0002255965479368,231,83.5,1,0.25,0
0.00020507246355331,0.00026632744534989,232,83.5,0.035714285714286,0.28571428571429,0
0.00022979260236365,0.00029047411293649,233,83.5,0,0.28571428571429,0
0.00018060768656873,0.0002427063762893,234,83.5,0.071428571428571,0.28571428571429,0
0.00015650141966172,0.00021966717035976,235,83.5,0.10714285714286,0.28571428571429,0
0.00013277531784814,0.00019727205008689,236,83.5,0.14285714285714,0.28571428571429,0
0.00010954784571149,0.00017562304291463,237,83.5,0.17857142857143,0.28571428571429,0
8.717584338124e-05,0.00015525545847261,238,83.5,0.21428571428571,0.28571428571429,0
6.6764130190321e-05,0.00013745250541313,239,83.5,0.25,0.28571428571429,0
4.9802730894712e-05,0.00012378538863712,240,83.5,0.28571428571429,0.28571428571429,0
3.7368250178863e-05,0.00011507412639937,241,83.5,0.32142857142857,0.28571428571429,0
2.9106428257702e-05,0.00011057472044093,242,82.862023084552,0.35714285714286,0.28571428571429,0
2.3077044690473e-05,0.00010843298841443,243,81.31021472873,0.39285714285714,0.28571428571429,0
1.7557349528431e-05,0.00010670653143751,244,79.304673045427,0.42857142857143,0.28571428571429,0
1.2148279144758e-05,0.0001052353158838,245,77.535072695834,0.46428571428571,0.28571428571429,0
6.9317553674222e-06,0.00010402377808956,246,76.372234414089,0.5,0.28571428571429,0
1.8591013326375e-06,0.00010304666369158,247,75.684917886807,0.53571428571429,0.28571428571429,0
-3.1534905511352e-06,0.00010214817143663,248,75.617060392963,0.57142857142857,0.28571428571429,0
-8.1704863366918e-06,0.0001011863940399,249,77.15497369168,0.60714285714286,0.28571428571429,0
-1.3268849446017e-05,9.9516361249122e-05,250,80.591282004254,0.64285714285714,0.28571428571429,0
-1.9765119208801e-05,9.9098547162804e-05,251,83.062093938234,0.67857142857143,0.28571428571429,0
-3.7016873427108e-05,9.8422028667101e-05,252,83.5,0.71428571428571,0.28571428571429,0
-5.6608366696443e-05,0.00010333523861747,253,83.5,0.75,0.28571428571429,0
-7.8326103801818e-05,0.00011559460105216,254,83.5,0.78571428571429,0.28571428571429,0
-0.00010077317732411,0.00013338044053138,255,83.5,0.82142857142857,0.28571428571429,0
-0.0001234564926662,0.00015569825282474,256,83.5,0.85714285714286,0.28571428571429,0
-0.00014832556206806,0.00017963423946171,257,83.5,0.89285714285714,0.28571428571429,0
-0.00016755977084243,0.00020356672108085,258,83.5,0.92857142857143,0.28571428571429,0
-0.00018850741740463,0.00022973686999851,259,83.5,0.96428571428571,0.28571428571429,0
-0.0002100512341724,0.00025677235604961,260,83.5,1,0.28571428571429,0
0.00022908397936367,0.00030117060611743,261,83.5,0.035714285714286,0.32142857142857,0
0.00025427808359255,0.00032552253298907,262,83.5,0,0.32142857142857,0
0.00020409984201372,0.00027727943483108,263,83.5,0.071428571428571,0.32142857142857,0
0.00017935690754527,0.00025389375113173,264,83.5,0.10714285714286,0.32142857142857,0
0.00015495575284863,0.0002310869623053,265,83.5,0.14285714285714,0.32142857142857,0
0.00013094059076534,0.00020892582847851,266,83.5,0.17857142857143,0.32142857142857,0
0.00010750750991094,0.00018762004578831,267,83.5,0.21428571428571,0.32142857142857,0
8.5144108845042e-05,0.00016780244248456,268,83.5,0.25,0.32142857142857,0
6.4931277602908e-05,0.00015071060633255,269,83.5,0.28571428571429,0.32142857142857,0
4.8098719956919e-05,0.00013756621055227,270,83.5,0.32142857142857,0.32142857142857,0
3.5416194566618e-05,0.00012892487534107,271,83.5,0.35714285714286,0.32142857142857,0
2.6584785009693e-05,0.00012413344563195,272,83.197872367092,0.39285714285714,0.32142857142857,0
2.0076970034472e-05,0.00012178819580731,273,82.12738803323,0.42857142857143,0.32142857142857,0
1.4240766605106e-05,0.00012011299666912,274,80.480024487386,0.46428571428571,0.32142857142857,0
8.5214185183807e-06,0.00011872132311103,275,79.192139279156,0.5,0.32142857142857,0
2.8792984841305e-06,0.00011765389181107,276,78.822366887505,0.53571428571429,0.32142857142857,0
-2.6947168409516e-06,0.00011685622366434,277,79.64232744575,0.57142857142857,0.32142857142857,0
-8.3029259334844e-06,0.00011598110305978,278,81.734310787856,0.60714285714286,0.32142857142857,0
-1.5272483047068e-05,0.00011616272330631,279,83.272719771703,0.64285714285714,0.32142857142857,0
-2.6088335197466e-05,0.00011916404974771,280,83.5,0.67857142857143,0.32142857142857,0
-4.5327793581731e-05,0.00012111623189217,281,83.5,0.71428571428571,0.32142857142857,0
-6.8695611034028e-05,0.00012956166280218,282,83.5,0.75,0.32142857142857,0
-9.4355926186203e-05,0.00014264056549357,283,83.5,0.78571428571429,0.32142857142857,0
-0.00012048100116009,0.0001607451793354,284,83.5,0.82142857142857,0.32142857142857,0
-0.0001462239010973,0.00018256884821976,285,83.5,0.85714285714286,0.32142857142857,0
-0.00017156392845308,0.00020884991597563,286,83.5,0.89285714285714,0.32142857142857,0
-0.00019340724929694,0.00023482347093906,287,83.5,0.92857142857143,0.32142857142857,0
-0.00021548077473187,0.00026130001677002,288,83.5,0.96428571428571,0.32142857142857,0
-0.00023758747699871,0.00028864596041851,289,83.5,1,0.32142857142857,0
0.00025329533360666,0.00033649342668938,290,83.5,0.035714285714286,0.35714285714286,0
0.00027897037456496,0.00036106821773679,291,83.5,0,0.35714285714286,0
0.00022783573771041,0.00031239477165767,292,83.5,0.071428571428571,0.35714285714286,0
0.00020258254501326,0.00028876145075651,293,83.5,0.10714285714286,0.35714285714286,0
0.00017755740045381,0.00026560906102004,294,83.5,0.14285714285714,0.35714285714286,0
0.0001528718898401,0.00024303968016197,295,83.5,0.17857142857143,0.35714285714286,0
0.00012857726395137,0.00022112594616087,296,83.5,0.21428571428571,0.35714285714286,0
0.00010495606125019,0.00020017053411904,297,83.5,0.25,0.35714285714286,0
8.2583743896292e-05,0.00018085323257227,298,83.5,0.28571428571429,0.35714285714286,0
6.2525813194208e-05,0.00016435043348533,299,83.5,0.32142857142857,0.35714285714286,0
4.5744406226494e-05,0.00015159056815962,300,83.5,0.35714285714286,0.35714285714286,0
3.2786464114188e-05,0.00014292323030781,301,83.5,0.39285714285714,0.35714285714286,0
2.3371844715915e-05,0.00013786470460506,302,83.428951623998,0.42857142857143,0.35714285714286,0
1.6274221634948e-05,0.0001352391870034,303,82.801869916885,0.46428571428571,0.35714285714286,0
9.9553607185182e-06,0.00013370336685343,304,82.065936170411,0.5,0.35714285714286,0
3.8108404292528e-06,0.00013262339946187,305,81.971209373263,0.53571428571429,0.35714285714286,0
-2.4932418367545e-06,0.0001319391670027,306,82.713719151614,0.57142857142857,0.35714285714286,0
-1.0009756952381e-05,0.00013268024507359,307,83.435527655875,0.60714285714286,0.35714285714286,0
-2.0713131856116e-05,0.00013663191351434,308,83.5,0.64285714285714,0.35714285714286,0
-3.5701768033086e-05,0.00014453347667253,309,83.5,0.67857142857143,0.35714285714286,0
-5.5634860401144e-05,0.00015476128810942,310,83.5,0.71428571428571,0.35714285714286,0
-8.1820818948317e-05,0.00016582814906269,311,83.5,0.75,0.35714285714286,0
-0.00011027351071235,0.00018065023787842,312,83.5,0.78571428571429,0.35714285714286,0
-0.00013961850347538,0.00019839893519069,313,83.5,0.82142857142857,0.35714285714286,0
-0.00016867851596178,0.00022000957809264,314,83.5,0.85714285714286,0.35714285714286,0
-0.00019495076181258,0.00024289260755378,315,83.5,0.89285714285714,0.35714285714286,0
-0.00021954164102878,0.00026728647553268,316,83.5,0.92857142857143,0.35714285714286,0
-0.00024253745906001,0.00029368023288833,317,83.5,0.96428571428571,0.35714285714286,0
-0.0002650028225583,0.00032065468350683,318,83.5,1,0.35714285714286,0
0.0002777074199844,0.0003723175788347,319,83.5,0.035714285714286,0.39285714285714,0
0.00030395092824155,0.00039718685733257,320,83.5,0,0.39285714285714,0
0.00025176250273098,0.00034799187635393,321,83.5,0.071428571428571,0.39285714285714,0
0.00022604434687097,0.00032414575389215,322,83.5,0.10714285714286,0.39285714285714,0
0.0002005296659889,0.00030077130839329,323,83.5,0.14285714285714,0.39285714285714,0
0.00017522013324741,0.00027784645932994,324,83.5,0.17857142857143,0.39285714285714,0
0.00015026823536101,0.00025552564173412,325,83.5,0.21428571428571,0.39285714285714,0
0.00012571119852067,0.00023385564973397,326,83.5,0.25,0.39285714285714,0
0.00010194351611088,0.00021321955231263,327,83.5,0.28571428571429,0.39285714285714,0
7.957370784058e-05,0.00019430888224736,328,83.5,0.32142857142857,0.39285714285714,0
5.9678835220634e-05,0.00017827831352301,329,83.5,0.35714285714286,0.39285714285714,0
4.2892622508881e-05,0.00016581891898771,330,83.5,0.39285714285714,0.39285714285714,0
2.9631546770356e-05,0.00015708679361636,331,83.5,0.42857142857143,0.39285714285714,0
1.9561699770592e-05,0.00015193004666062,332,83.5,0.46428571428571,0.39285714285714,0
1.1560035908384e-05,0.00014926490849223,333,83.5,0.5,0.39285714285714,0
4.1793134245407e-06,0.00014828385611117,334,83.5,0.53571428571429,0.39285714285714,0
-4.2298646956537e-06,0.00014921977214457,335,83.5,0.57142857142857,0.39285714285714,0
-1.544698238992e-05,0.0001533420027096,336,83.5,0.60714285714286,0.39285714285714,0
-3.0373078152757e-05,0.00016137511492164,337,83.5,0.64285714285714,0.39285714285714,0
-4.8902995616284e-05,0.00017326937479683,338,83.5,0.67857142857143,0.39285714285714,0
-7.1304668255562e-05,0.00018832597759789,339,83.5,0.71428571428571,0.39285714285714,0
-9.7321279606026e-05,0.0002043409725937,340,83.5,0.75,0.39285714285714,0
-0.00012716362120386,0.00022063065448048,341,83.5,0.78571428571429,0.39285714285714,0
-0.00015817610521251,0.00023904832911893,342,83.5,0.82142857142857,0.39285714285714,0
-0.00018824072149138,0.00025859196214099,343,83.5,0.85714285714286,0.39285714285714,0
-0.00021690005851611,0.00027944454109742,344,83.5,0.89285714285714,0.39285714285714,0
-0.00024375131288839,0.00030221834383016,345,83.5,0.92857142857143,0.39285714285714,0
-0.00026881617031797,0.00032680898865154,346,83.5,0.96428571428571,0.39285714285714,0
-0.00029210712215659,0.00035309596790267,347,83.5,1,0.39285714285714,0
0.00030240606962867,0.00040872577196652,348,83.5,0.035714285714286,0.42857142857143,0
0.00032930735080129,0.00043397770551188,349,83.5,0,0.42857142857143,0
0.0002758912270015,0.00038408125882931,350,83.5,0.071428571428571,0.42857142857143,0
0.00024969162892029,0.00036000741038762,351,83.5,0.10714285714286,0.42857142857143,0
0.00022372324068696,0.00033641574179689,352,83.5,0.14285714285714,0.42857142857143,0
0.0001979569162648,0.00031330709967911,353,83.5,0.17857142857143,0.42857142857143,0
0.00017236996135162,0.00029058284950006,354,83.5,0.21428571428571,0.42857142857143,0
0.00014721365623691,0.00026849996462312,355,83.5,0.25,0.42857142857143,0
0.00012244480277621,0.00024702134256717,356,83.5,0.28571428571429,0.42857142857143,0
9.8607161151967e-05,0.00022663967220846,357,83.5,0.32142857142857,0.42857142857143,0
7.6251164238902e-05,0.00020803244859412,358,83.5,0.35714285714286,0.42857142857143,0
5.6561611310219e-05,0.00019241311101229,359,83.5,0.39285714285714,0.42857142857143,0
3.9612802310332e-05,0.00018035399712724,360,83.5,0.42857142857143,0.42857142857143,0
2.5581605744757e-05,0.00017197010078783,361,83.5,0.46428571428571,0.42857142857143,0
1.3933083605739e-05,0.00016765122226013,362,83.5,0.5,0.42857142857143,0
2.8994855080188e-06,0.00016693456031085,363,83.5,0.53571428571429,0.42857142857143,0
-9.6017406138004e-06,0.00017047976293711,364,83.5,0.57142857142857,0.42857142857143,0
-2.492887682339e-05,0.00017812112964637,365,83.5,0.60714285714286,0.42857142857143,0
-4.335797110843e-05,0.00018979360324892,366,83.5,0.64285714285714,0.42857142857143,0
-6.53114020299e-05,0.00020521438429382,367,83.5,0.67857142857143,0.42857142857143,0
-8.9648895343125e-05,0.00022311316654837,368,83.5,0.71428571428571,0.42857142857143,0
-0.00011641922239353,0.00024232853159086,369,83.5,0.75,0.42857142857143,0
-0.0001453000701581,0.00026143443573677,370,83.5,0.78571428571429,0.42857142857143,0
-0.0001759393862504,0.0002800188287001,371,83.5,0.82142857142857,0.42857142857143,0
-0.00020676466167991,0.00029875059306699,372,83.5,0.85714285714286,0.42857142857143,0
-0.00023699697097276,0.00031837189986359,373,83.5,0.89285714285714,0.42857142857143,0
-0.00026596387469549,0.00033929984168237,374,83.5,0.92857142857143,0.42857142857143,0
-0.0002930965093957,0.00036197076266221,375,83.5,0.96428571428571,0.42857142857143,0
-0.00031835606217462,0.00038642090530004,376,83.5,1,0.42857142857143,0
0.00032749251312966,0.00044580771632672,377,83.5,0.035714285714286,0.46428571428571,0
0.0003550635981767,0.00047145534770004,378,83.5,0,0.46428571428571,0
0.0003003103482634,0.00042076128547962,379,83.5,0.071428571428571,0.46428571428571,0
0.00027353785096654,0.00039634836061567,380,83.5,0.10714285714286,0.46428571428571,0
0.00024709613436864,0.00037253497468534,381,83.5,0.14285714285714,0.46428571428571,0
0.00022090157859959,0.00034918085460754,382,83.5,0.17857142857143,0.46428571428571,0
0.00019493376292991,0.0003263194858689,383,83.5,0.21428571428571,0.46428571428571,0
0.00016911613985951,0.00030370526541262,384,83.5,0.25,0.46428571428571,0
0.0001438873883034,0.00028183082934405,385,83.5,0.28571428571429,0.46428571428571,0
0.00011896862195627,0.00026046299053642,386,83.5,0.32142857142857,0.46428571428571,0
9.5157716615236e-05,0.00024028512277734,387,83.5,0.35714285714286,0.46428571428571,0
7.2677663858837e-05,0.00022201859661529,388,83.5,0.39285714285714,0.46428571428571,0
5.2648175445393e-05,0.00020748038802319,389,83.5,0.42857142857143,0.46428571428571,0
3.398274243509e-05,0.00019717715277686,390,83.5,0.46428571428571,0.46428571428571,0
1.6811585768104e-05,0.00019091626081714,391,83.5,0.5,0.46428571428571,0
-5.4786143907768e-08,0.00019129688865945,392,83.5,0.53571428571429,0.46428571428571,0
-1.8165610401427e-05,0.00019636133931701,393,83.5,0.57142857142857,0.46428571428571,0
-3.7462830306759e-05,0.00020660628844393,394,83.5,0.60714285714286,0.46428571428571,0
-5.9695664640509e-05,0.00022162537193544,395,83.5,0.64285714285714,0.46428571428571,0
-8.3843757942432e-05,0.00023946265447235,396,83.5,0.67857142857143,0.46428571428571,0
-0.00010998823403842,0.00025930467598939,397,83.5,0.71428571428571,0.46428571428571,0
-0.00013690838384849,0.00027996417657072,398,83.5,0.75,0.46428571428571,0
-0.00016511079769604,0.0003008674658318,399,83.5,0.78571428571429,0.46428571428571,0
-0.00019441506865944,0.00032064290853726,400,83.5,0.82142857142857,0.46428571428571,0
-0.00022501795325394,0.0003397291165936,401,83.5,0.85714285714286,0.46428571428571,0
-0.00025586563045885,0.00035872826604371,402,83.5,0.89285714285714,0.46428571428571,0
-0.0002861673202707,0.0003784066770346,403,83.5,0.92857142857143,0.46428571428571,0
-0.00031531341182288,0.00039929374798669,404,83.5,0.96428571428571,0.46428571428571,0
-0.00034291788966496,0.00042201029244739,405,83.5,1,0.46428571428571,0
0.00035298740028975,0.00048357468949616,406,83.5,0.035714285714286,0.5,0
0.00038112806749559,0.00050951748881191,407,83.5,0,0.5,0
0.00032513232087749,0.0004581278757179,408,83.5,0.071428571428571,0.5,0
0.0002976752763299,0.00043328553858166,409,83.5,0.10714285714286,0.5,0
0.0002706775851151,0.0004090952951435,410,83.5,0.14285714285714,0.5,0
0.00024404500607303,0.00038551445230292,411,83.5,0.17857142857143,0.5,0
0.00021770915874102,0.0003623190808351,412,83.5,0.21428571428571,0.5,0
0.00019165818539712,0.00033965693692034,413,83.5,0.25,0.5,0
0.00016567590693512,0.00031700190042252,414,83.5,0.28571428571429,0.5,0
0.00014055805627227,0.00029536071327522,415,83.5,0.32142857142857,0.5,0
0.00011540057589178,0.00027412483140328,416,83.5,0.35714285714286,0.5,0
9.0960693811285e-05,0.00025498115991323,417,83.5,0.39285714285714,0.5,0
6.6071042237476e-05,0.00023902922174836,418,83.5,0.42857142857143,0.5,0
4.3537002039038e-05,0.0002270869594772,419,83.5,0.46428571428571,0.5,0
1.9747156903579e-05,0.00022223125177899,420,83.5,0.5,0.5,0
-4.2171797902478e-06,0.0002210660089455,421,83.5,0.53571428571429,0.5,0
-2.6995830100964e-05,0.0002279306077158,422,83.5,0.57142857142857,0.5,0
-5.2758442847015e-05,0.00023972106369503,423,83.5,0.60714285714286,0.5,0
-7.797737375311e-05,0.00025593592932405,424,83.5,0.64285714285714,0.5,0
-0.00010438354838709,0.00027548699723838,425,83.5,0.67857142857143,0.5,0
-0.00013074735256074,0.00029595256568045,426,83.5,0.71428571428571,0.5,0
-0.00015826936888599,0.00031770411758692,427,83.5,0.75,0.5,0
-0.00018588469708507,0.0003391049906573,428,83.5,0.78571428571429,0.5,0
-0.00021440772174942,0.00036028290378901,429,83.5,0.82142857142857,0.5,0
-0.00024383956647321,0.00038029403176553,430,83.5,0.85714285714286,0.5,0
-0.00027429928356339,0.00039965311197899,431,83.5,0.89285714285714,0.5,0
-0.00030519407494619,0.00041890231225907,432,83.5,0.92857142857143,0.5,0
-0.00033590749341606,0.00043885395235055,433,83.5,0.96428571428571,0.5,0
-0.00036594420543195,0.0004602572704002,434,83.5,1,0.5,0
0.00037879359143207,0.00052191707595696,435,83.5,0.035714285714286,0.53571428571429,0
0.00040733587852803,0.00054799678263498,436,83.5,0,0.53571428571429,0
0.00035037895052858,0.0004961832182727,437,83.5,0.071428571428571,0.53571428571429,0
0.00032225625325045,0.00047091477654206,438,83.5,0.10714285714286,0.53571428571429,0
0.00029457205424974,0.00044622851843852,439,83.5,0.14285714285714,0.53571428571429,0
0.00026745531983787,0.00042219137316436,440,83.5,0.17857142857143,0.53571428571429,0
0.0002407499107952,0.00039875861170631,441,83.5,0.21428571428571,0.53571428571429,0
0.00021441494069972,0.00037559439511082,442,83.5,0.25,0.53571428571429,0
0.00018840486751589,0.00035315445103418,443,83.5,0.28571428571429,0.53571428571429,0
0.00016214036027393,0.0003303657841056,444,83.5,0.32142857142857,0.53571428571429,0
0.00013674876716312,0.00030975029389789,445,83.5,0.35714285714286,0.53571428571429,0
0.00010818415859465,0.00029198944751982,446,83.5,0.39285714285714,0.53571428571429,0
8.059477009052e-05,0.00027489899833716,447,83.5,0.42857142857143,0.53571428571429,0
5.3152615970742e-05,0.00026118926345927,448,83.5,0.46428571428571,0.53571428571429,0
2.224297908442e-05,0.00025213992134272,449,83.5,0.5,0.53571428571429,0
-8.8741572643834e-06,0.00025559566334144,450,83.5,0.53571428571429,0.53571428571429,0
-3.7492499593006e-05,0.00026478566876457,451,83.5,0.57142857142857,0.53571428571429,0
-6.6654726229392e-05,0.00027845544339602,452,83.5,0.60714285714286,0.53571428571429,0
-9.7781686454171e-05,0.00029318887251583,453,83.5,0.64285714285714,0.53571428571429,0
-0.00012470445148142,0.00031180835593635,454,83.5,0.67857142857143,0.53571428571429,0
-0.0001525270254066,0.00033357421173914,455,83.5,0.71428571428571,0.53571428571429,0
-0.00017971908184992,0.00035500221560813,456,83.5,0.75,0.53571428571429,0
-0.00020749710413991,0.00037719438190965,457,83.5,0.78571428571429,0.53571428571429,0
-0.0002352862672761,0.00039869464563125,458,83.5,0.82142857142857,0.53571428571429,0
-0.00026378091233833,0.00041989331232267,459,83.5,0.85714285714286,0.53571428571429,0
-0.00029337758936724,0.000440264705295,460,83.5,0.89285714285714,0.53571428571429,0
-0.00032418571230608,0.00046018418413805,461,83.5,0.92857142857143,0.53571428571429,0
-0.00035588051348518,0.00048022104270533,462,83.5,0.96428571428571,0.53571428571429,0
-0.00038783727863314,0.00050113323379796,463,83.5,1,0.53571428571429,0
0.00040474616239648,0.00056066296030362,464,83.5,0.035714285714286,0.57142857142857,0
0.00043351824187563,0.00058671708127574,465,83.5,0,0.57142857142857,0
0.00037595828984357,0.00053478944816318,466,83.5,0.071428571428571,0.57142857142857,0
0.00034731715309814,0.00050920968931602,467,83.5,0.10714285714286,0.57142857142857,0
0.00031901824735059,0.00048402578940625,468,83.5,0.14285714285714,0.57142857142857,0
0.00029123298462161,0.00045936915992308,469,83.5,0.17857142857143,0.57142857142857,0
0.00026417810092628,0.00043538053149786,470,83.5,0.21428571428571,0.57142857142857,0
0.00023748235669185,0.00041205807720085,471,83.5,0.25,0.57142857142857,0
0.00021114710827555,0.00038893074243222,472,83.5,0.28571428571429,0.57142857142857,0
0.00018499276096086,0.00036715636717565,473,83.5,0.32142857142857,0.57142857142857,0
0.0001569886021614,0.00034585634492644,474,83.5,0.35714285714286,0.57142857142857,0
0.00012558435127179,0.00032507392415193,475,83.5,0.39285714285714,0.57142857142857,0
9.4883807423327e-05,0.00030913489708426,476,83.5,0.42857142857143,0.57142857142857,0
6.1073384602605e-05,0.00029741150712742,477,83.5,0.46428571428571,0.57142857142857,0
2.449142721748e-05,0.00029255827872157,478,83.5,0.5,0.57142857142857,0
-1.3012658004114e-05,0.00029288583521006,479,83.5,0.53571428571429,0.57142857142857,0
-4.8476714106357e-05,0.00030084429892892,480,83.5,0.57142857142857,0.57142857142857,0
-8.1510704661618e-05,0.00031357783901289,481,83.5,0.60714285714286,0.57142857142857,0
-0.00011498485535188,0.00033200669749056,482,83.5,0.64285714285714,0.57142857142857,0
-0.00014618894479513,0.00035057611425901,483,83.5,0.67857142857143,0.57142857142857,0
-0.00017384508868606,0.00037060212317493,484,83.5,0.71428571428571,0.57142857142857,0
-0.00020184406985197,0.00039298996333861,485,83.5,0.75,0.57142857142857,0
-0.00022920281329428,0.00041456620951083,486,83.5,0.78571428571429,0.57142857142857,0
-0.00025675061316617,0.00043669917781617,487,83.5,0.82142857142857,0.57142857142857,0
-0.00028481030737576,0.00045857955641875,488,83.5,0.85714285714286,0.57142857142857,0
-0.0003138298742322,0.00048030321190231,489,83.5,0.89285714285714,0.57142857142857,0
-0.00034432272506988,0.0005016255222493,490,83.5,0.92857142857143,0.57142857142857,0
-0.00037628576644904,0.00052268774721241,491,83.5,0.96428571428571,0.57142857142857,0
-0.00040925606094442,0.00054389276735751,492,83.5,1,0.57142857142857,0
0.00043069060923138,0.00059962776908986,493,83.5,0.035714285714286,0.60714285714286,0
0.00045950947793259,0.00062550176608735,494,83.5,0,0.60714285714286,0
0.00040171709108924,0.0005737467245377,495,83.5,0.071428571428571,0.60714285714286,0
0.00037278756874457,0.00054797993778087,496,83.5,0.10714285714286,0.60714285714286,0
0.0003440638029819,0.00052241376691053,497,83.5,0.14285714285714,0.60714285714286,0
0.00031575130610602,0.00049717231801377,498,83.5,0.17857142857143,0.60714285714286,0
0.00028796166815764,0.0004724484354142,499,83.5,0.21428571428571,0.60714285714286,0
0.00026104372445816,0.00044858516946834,500,83.5,0.25,0.60714285714286,0
0.00023425643369345,0.00042553788917132,501,83.5,0.28571428571429,0.60714285714286,0
0.00020868515009942,0.00040196226762403,502,83.5,0.32142857142857,0.60714285714286,0
0.00017587640801614,0.00038105319334687,503,83.5,0.35714285714286,0.60714285714286,0
0.00014302787597184,0.00036315164502765,504,83.5,0.39285714285714,0.60714285714286,0
0.00010572238181927,0.0003482416518174,505,83.5,0.42857142857143,0.60714285714286,0
6.6863515726033e-05,0.00034009960195701,506,83.5,0.46428571428571,0.60714285714286,0
2.5862483582232e-05,0.00033651120367986,507,83.5,0.5,0.60714285714286,0
-1.573739549919e-05,0.00033717150020042,508,83.5,0.53571428571429,0.60714285714286,0
-5.6829726548604e-05,0.00034215551838955,509,83.5,0.57142857142857,0.60714285714286,0
-9.6318004572999e-05,0.00035405021874573,510,83.5,0.60714285714286,0.60714285714286,0
-0.00013147779695855,0.0003691155907216,511,83.5,0.64285714285714,0.60714285714286,0
-0.00016620469601646,0.00038872126361636,512,83.5,0.67857142857143,0.60714285714286,0
-0.00019600261718969,0.00040941891258934,513,83.5,0.71428571428571,0.60714285714286,0
-0.00022359857195867,0.00043007235732739,514,83.5,0.75,0.60714285714286,0
-0.00025105544902309,0.00045222294383557,515,83.5,0.78571428571429,0.60714285714286,0
-0.00027872653651392,0.00047438788814456,516,83.5,0.82142857142857,0.60714285714286,0
-0.0003067969796462,0.00049709344954534,517,83.5,0.85714285714286,0.60714285714286,0
-0.00033586929942146,0.00052001678234897,518,83.5,0.89285714285714,0.60714285714286,0
-0.00036616477844339,0.00054287796266584,519,83.5,0.92857142857143,0.60714285714286,0
-0.00039788595573588,0.00056537063064573,520,83.5,0.96428571428571,0.60714285714286,0
-0.00043088168810388,0.00058748279986883,521,83.5,1,0.60714285714286,0
0.00045648690552901,0.00063861055586691,522,83.5,0.035714285714286,0.64285714285714,0
0.00048515564488922,0.00066416429811459,523,83.5,0,0.64285714285714,0
0.00042754336121516,0.00061284657108077,524,83.5,0.071428571428571,0.64285714285714,0
0.00039853009409499,0.00058698176464625,525,83.5,0.10714285714286,0.64285714285714,0
0.00036964968950939,0.00056116146892845,526,83.5,0.14285714285714,0.64285714285714,0
0.00034098156348801,0.00053550474845302,527,83.5,0.17857142857143,0.64285714285714,0
0.00031268759565629,0.00051024386290596,528,83.5,0.21428571428571,0.64285714285714,0
0.00028479043463991,0.00048553799540385,529,83.5,0.25,0.64285714285714,0
0.00025817664560056,0.00046190358443388,530,83.5,0.28571428571429,0.64285714285714,0
0.00022965960355044,0.00043984253275079,531,83.5,0.32142857142857,0.64285714285714,0
0.00019440828951433,0.00042033929307289,532,83.5,0.35714285714286,0.64285714285714,0
0.00015565564842293,0.00040461059657961,533,83.5,0.39285714285714,0.64285714285714,0
0.00011526136105706,0.00039360476124833,534,83.5,0.42857142857143,0.64285714285714,0
7.1076912639016e-05,0.00038682966755377,535,83.5,0.46428571428571,0.64285714285714,0
2.6715996568622e-05,0.00038425295510181,536,83.5,0.5,0.64285714285714,0
-1.8453619954066e-05,0.00038521209224907,537,83.5,0.53571428571429,0.64285714285714,0
-6.3752455095117e-05,0.00038965149980206,538,83.5,0.57142857142857,0.64285714285714,0
-0.00010636898342637,0.0003976746887818,539,83.5,0.60714285714286,0.64285714285714,0
-0.00014732207401875,0.00041083537162062,540,83.5,0.64285714285714,0.64285714285714,0
-0.00018334636134254,0.00042673214098204,541,83.5,0.67857142857143,0.64285714285714,0
-0.00021853048478855,0.00044565013112504,542,83.5,0.71428571428571,0.64285714285714,0
-0.00024539157854281,0.00046800251904108,543,83.5,0.75,0.64285714285714,0
-0.00027326685348899,0.00048973132252382,544,83.5,0.78571428571429,0.64285714285714,0
-0.00030116872864923,0.00051245391679868,545,83.5,0.82142857142857,0.64285714285714,0
-0.00032987184553,0.00053589739161007,546,83.5,0.85714285714286,0.64285714285714,0
-0.00035927168785952,0.00055982713445168,547,83.5,0.89285714285714,0.64285714285714,0
-0.00038956745565526,0.00058386257218626,548,83.5,0.92857142857143,0.64285714285714,0
-0.0004208785942269,0.00060765942665483,549,83.5,0.96428571428571,0.64285714285714,0
-0.00045324823064781,0.00063084947482323,550,83.5,1,0.64285714285714,0
0.00048201570575375,0.00067739121422963,551,83.5,0.035714285714286,0.67857142857143,0
0.00051029854976223,0.00070248397565514,552,83.5,0,0.67857142857143,0
0.0004533344218686,0.00065184838505917,553,83.5,0.071428571428571,0.67857142857143,0
0.00042447716088094,0.00062600549569653,554,83.5,0.10714285714286,0.67857142857143,0
0.00039559254211617,0.00060002648459968,555,83.5,0.14285714285714,0.67857142857143,0
0.00036680693272132,0.00057419171699002,556,83.5,0.17857142857143,0.67857142857143,0
0.00033804662177503,0.00054863860628485,557,83.5,0.21428571428571,0.67857142857143,0
0.00030933888119659,0.00052377840149078,558,83.5,0.25,0.67857142857143,0
0.0002794015744062,0.00050022637851786,559,83.5,0.28571428571429,0.67857142857143,0
0.00024885738176722,0.00048098556865119,560,83.5,0.32142857142857,0.67857142857143,0
0.00020874515017147,0.0004636362510653,561,83.5,0.35714285714286,0.67857142857143,0
0.00016738829969906,0.00045060913818571,562,83.5,0.39285714285714,0.67857142857143,0
0.0001216224391872,0.00044279589167652,563,83.5,0.42857142857143,0.67857142857143,0
7.5165196085182e-05,0.00043739646309827,564,83.5,0.46428571428571,0.67857142857143,0
2.6785911721325e-05,0.00043542678386765,565,83.5,0.5,0.67857142857143,0
-2.1149555145279e-05,0.00043625593736899,566,83.5,0.53571428571429,0.67857142857143,0
-6.8149592051636e-05,0.00043991050391297,567,83.5,0.57142857142857,0.67857142857143,0
-0.00011503172506663,0.00044603988347575,568,83.5,0.60714285714286,0.67857142857143,0
-0.00015815415546876,0.00045558891037748,569,83.5,0.64285714285714,0.67857142857143,0
-0.00019961619784127,0.000468653290177,570,83.5,0.67857142857143,0.67857142857143,0
-0.00023724997551814,0.0004856161053298,571,83.5,0.71428571428571,0.67857142857143,0
-0.00026765620629151,0.00050562051768863,572,83.5,0.75,0.67857142857143,0
-0.00029562433918399,0.00052788788160103,573,83.5,0.78571428571429,0.67857142857143,0
-0.00032458256208523,0.00055118343279982,574,83.5,0.82142857142857,0.67857142857143,0
-0.00035388835048224,0.00057526320462879,575,83.5,0.85714285714286,0.67857142857143,0
-0.00038371228066663,0.00059985164614058,576,83.5,0.89285714285714,0.67857142857143,0
-0.00041404907305966,0.00062467450114557,577,83.5,0.92857142857143,0.67857142857143,0
-0.00044497382945401,0.00064931884551343,578,83.5,0.96428571428571,0.67857142857143,0
-0.00047645879024402,0.000673308095857,579,83.5,1,0.67857142857143,0
0.00050715892656078,0.00071570437769368,580,83.5,0.035714285714286,0.71428571428571,0
0.00053481008190759,0.00074023197195825,581,83.5,0,0.71428571428571,0
0.00047900294787703,0.00069051330780165,582,83.5,0.071428571428571,0.71428571428571,0
0.00045050319621223,0.00066482453466586,583,83.5,0.10714285714286,0.71428571428571,0
0.00042176564267679,0.00063893827097275,584,83.5,0.14285714285714,0.71428571428571,0
0.00039274975911528,0.00061313958869263,585,83.5,0.17857142857143,0.71428571428571,0
0.00036329473233999,0.00058800298053188,586,83.5,0.21428571428571,0.71428571428571,0
0.00033240777888103,0.00056414470054175,587,83.5,0.25,0.71428571428571,0
0.00029933728042655,0.00054328888098407,588,83.5,0.28571428571429,0.71428571428571,0
0.00026325265845687,0.00052467638837716,589,83.5,0.32142857142857,0.71428571428571,0
0.00022212671562755,0.00051043168791163,590,83.5,0.35714285714286,0.71428571428571,0
0.00017497639169409,0.00050129866470555,591,83.5,0.39285714285714,0.71428571428571,0
0.00012775957495173,0.00049426443023725,592,83.5,0.42857142857143,0.71428571428571,0
7.7624850428288e-05,0.00049150312645105,593,83.5,0.46428571428571,0.71428571428571,0
2.7320447334332e-05,0.00048911864308128,594,83.5,0.5,0.71428571428571,0
-2.2734894561717e-05,0.00048955128189111,595,83.5,0.53571428571429,0.71428571428571,0
-7.2340834901917e-05,0.00049231263904268,596,83.5,0.57142857142857,0.71428571428571,0
-0.00012049161066372,0.00049770338415917,597,83.5,0.60714285714286,0.71428571428571,0
-0.00016808370367559,0.00050373599097548,598,83.5,0.64285714285714,0.71428571428571,0
-0.00021145161390529,0.00051445205078148,599,83.5,0.67857142857143,0.71428571428571,0
-0.00025385430565329,0.0005289565665497,600,83.5,0.71428571428571,0.71428571428571,0
-0.00028676442944501,0.00054598446609797,601,83.5,0.75,0.71428571428571,0
-0.00031852455447963,0.00056741302463159,602,83.5,0.78571428571429,0.71428571428571,0
-0.00034861532089467,0.00059078005243013,603,83.5,0.82142857142857,0.71428571428571,0
-0.00037867002468616,0.00061513388761966,604,83.5,0.85714285714286,0.71428571428571,0
-0.00040881269858705,0.0006401009004131,605,83.5,0.89285714285714,0.71428571428571,0
-0.00043917099976867,0.00066531634432987,606,83.5,0.92857142857143,0.71428571428571,0
-0.00046965070908462,0.00069030370186516,607,83.5,0.96428571428571,0.71428571428571,0
-0.00050017362412296,0.0007145666278373,608,83.5,1,0.71428571428571,0
0.00053182064099019,0.00075329819529279,609,83.5,0.035714285714286,0.75,0
0.00055857771141331,0.00077713972999953,610,83.5,0,0.75,0
0.00050440257940799,0.00072859429909317,611,83.5,0.071428571428571,0.75,0
0.00047639752301056,0.00070334613460934,612,83.5,0.10714285714286,0.75,0
0.00044770879953364,0.00067791478870988,613,83.5,0.14285714285714,0.75,0
0.0004180682006152,0.00065293246958295,614,83.5,0.17857142857143,0.75,0
0.00038675432932137,0.00062914308478179,615,83.5,0.21428571428571,0.75,0
0.0003530432762882,0.00060800465956564,616,83.5,0.25,0.75,0
0.00031627473552196,0.0005895884837898,617,83.5,0.28571428571429,0.75,0
0.00027546295813137,0.00057602140793124,618,83.5,0.32142857142857,0.75,0
0.00023210277401319,0.00056367041161769,619,83.5,0.35714285714286,0.75,0
0.00018273638822219,0.00055381134198373,620,83.5,0.39285714285714,0.75,0
0.00013095783335538,0.0005496884072467,621,83.5,0.42857142857143,0.75,0
8.0284400925166e-05,0.00054605160886486,622,83.5,0.46428571428571,0.75,0
2.8733089217292e-05,0.00054541335989066,623,83.5,0.5,0.75,0
-2.3802020900523e-05,0.0005449377175837,624,83.5,0.53571428571429,0.75,0
-7.5541698591127e-05,0.00054729166394831,625,83.5,0.57142857142857,0.75,0
-0.00012571952883673,0.00055012164234645,626,83.5,0.60714285714286,0.75,0
-0.0001738100766312,0.00055610061640623,627,83.5,0.64285714285714,0.75,0
-0.00022250222359324,0.00056317377383913,628,83.5,0.67857142857143,0.75,0
-0.00026598853421784,0.0005752964920209,629,83.5,0.71428571428571,0.75,0
-0.00030431674746467,0.00059114197005049,630,83.5,0.75,0.75,0
-0.000339565778929,0.00060970103005492,631,83.5,0.78571428571429,0.75,0
-0.0003724381666814,0.00063169857591356,632,83.5,0.82142857142857,0.75,0
-0.00040363582740284,0.00065562229396121,633,83.5,0.85714285714286,0.75,0
-0.00043426113652811,0.0006805211644297,634,83.5,0.89285714285714,0.75,0
-0.0004645025868314,0.00070567226995896,635,83.5,0.92857142857143,0.75,0
-0.00049439604510486,0.000730518646459,636,83.5,0.96428571428571,0.75,0
-0.00052384238789365,0.00075452261753134,637,83.5,1,0.75,0
0.00055586231161422,0.0007899329290259,638,83.5,0.035714285714286,0.78571428571429,0
0.00058147139800682,0.00081291085000945,639,83.5,0,0.78571428571429,0
0.00052928175420387,0.00076601088440342,640,83.5,0.071428571428571,0.78571428571429,0
0.0005016328787823,0.00074163653813672,641,83.5,0.10714285714286,0.78571428571429,0
0.00047256611514246,0.00071748518796127,642,83.5,0.14285714285714,0.78571428571429,0
0.00044142438441583,0.00069432237742059,643,83.5,0.17857142857143,0.78571428571429,0
0.00040751029866907,0.00067335033119111,644,83.5,0.21428571428571,0.78571428571429,0
0.00037032605982658,0.00065505976648232,645,83.5,0.25,0.78571428571429,0
0.00032937435202643,0.00064090549188752,646,83.5,0.28571428571429,0.78571428571429,0
0.00028586301161446,0.00062935553913783,647,83.5,0.32142857142857,0.78571428571429,0
0.00023868589655657,0.00062166506314678,648,83.5,0.35714285714286,0.78571428571429,0
0.00019027670764348,0.00061372011129502,649,83.5,0.39285714285714,0.78571428571429,0
0.0001352832981583,0.0006057559950298,650,83.5,0.42857142857143,0.78571428571429,0
8.227114489509e-05,0.00060262556932609,651,83.5,0.46428571428571,0.78571428571429,0
3.0035777093786e-05,0.00060176356133964,652,83.5,0.5,0.78571428571429,0
-2.4028075647907e-05,0.00060419498434945,653,83.5,0.53571428571429,0.78571428571429,0
-7.7931402477454e-05,0.00060274414679117,654,83.5,0.57142857142857,0.78571428571429,0
-0.00012884346831172,0.00060484230834558,655,83.5,0.60714285714286,0.78571428571429,0
-0.00017992995931836,0.0006095700049275,656,83.5,0.64285714285714,0.78571428571429,0
-0.00023107857736653,0.00061869371557627,657,83.5,0.67857142857143,0.78571428571429,0
-0.0002760673741931,0.00062850223365337,658,83.5,0.71428571428571,0.78571428571429,0
-0.00031895255133453,0.00063982501935266,659,83.5,0.75,0.78571428571429,0
-0.0003581240149917,0.000655836212045,660,83.5,0.78571428571429,0.78571428571429,0
-0.00039429425565047,0.00067504178904881,661,83.5,0.82142857142857,0.78571428571429,0
-0.00042785662349105,0.00069730113650374,662,83.5,0.85714285714286,0.78571428571429,0
-0.00045937716606633,0.0007211733926297,663,83.5,0.89285714285714,0.78571428571429,0
-0.00048957861961646,0.00074561522798713,664,83.5,0.92857142857143,0.78571428571429,0
-0.00051873817722916,0.00076978990160168,665,83.5,0.96428571428571,0.78571428571429,0
-0.00054697062847937,0.00079308484049425,666,83.5,1,0.78571428571429,0
0.00057897403019385,0.00082549685881426,667,83.5,0.035714285714286,0.82142857142857,0
0.00060324810027249,0.00084719781432824,668,83.5,0,0.82142857142857,0
0.0005530997131118,0.00080289805605052,669,83.5,0.071428571428571,0.82142857142857,0
0.00052533215429798,0.0007802252212808,670,83.5,0.10714285714286,0.82142857142857,0
0.00049510899080353,0.00075834318007761,671,83.5,0.14285714285714,0.82142857142857,0
0.00046175972459033,0.00073828868660939,672,83.5,0.17857142857143,0.82142857142857,0
0.00042479537609161,0.00072065617207346,673,83.5,0.21428571428571,0.82142857142857,0
0.00038391739816119,0.0007064029725405,674,83.5,0.25,0.82142857142857,0
0.00034000202858992,0.00069484120094755,675,83.5,0.28571428571429,0.82142857142857,0
0.00029295247598809,0.00068667256159611,676,83.5,0.32142857142857,0.82142857142857,0
0.0002447527691349,0.00068005174248772,677,83.5,0.35714285714286,0.82142857142857,0
0.00019349135838539,0.00067577006960212,678,83.5,0.39285714285714,0.82142857142857,0
0.00014105075783903,0.00067139188618152,679,83.5,0.42857142857143,0.82142857142857,0
8.5168540411559e-05,0.00066669005328336,680,83.5,0.46428571428571,0.82142857142857,0
3.1623287827229e-05,0.00066385932434238,681,83.5,0.5,0.82142857142857,0
-2.4070101195749e-05,0.0006609737611553,682,83.5,0.53571428571429,0.82142857142857,0
-7.9367065809892e-05,0.00066424094872803,683,83.5,0.57142857142857,0.82142857142857,0
-0.00013209854884499,0.00066744762188604,684,83.5,0.60714285714286,0.82142857142857,0
-0.00018579278362394,0.00067243284165079,685,83.5,0.64285714285714,0.82142857142857,0
-0.00023608798394267,0.00067761109794818,686,83.5,0.67857142857143,0.82142857142857,0
-0.00028465686690643,0.00068382096837321,687,83.5,0.71428571428571,0.82142857142857,0
-0.00033015504736251,0.00069329709547508,688,83.5,0.75,0.82142857142857,0
-0.0003735314336989,0.00070553051916443,689,83.5,0.78571428571429,0.82142857142857,0
-0.00041337493558441,0.00072179326279227,690,83.5,0.82142857142857,0.82142857142857,0
-0.0004498159058512,0.00074097320476885,691,83.5,0.85714285714286,0.82142857142857,0
-0.0004830547230904,0.00076252651325451,692,83.5,0.89285714285714,0.82142857142857,0
-0.00051362841978972,0.00078521104616882,693,83.5,0.92857142857143,0.82142857142857,0
-0.00054219093101339,0.00080803242092176,694,83.5,0.96428571428571,0.82142857142857,0
-0.00056913196668172,0.00083011020430635,695,83.5,1,0.82142857142857,0
0.0006004867002172,0.00086005175926748,696,83.5,0.035714285714286,0.85714285714286,0
0.00062342699477396,0.00087973547944349,697,83.5,0,0.85714285714286,0
0.00057493826407853,0.00083974077298371,698,83.5,0.071428571428571,0.85714285714286,0
0.00054636967213296,0.00081981606900542,699,83.5,0.10714285714286,0.85714285714286,0
0.00051428541674059,0.00080133091617413,700,83.5,0.14285714285714,0.85714285714286,0
0.00047831069308326,0.00078500713668205,701,83.5,0.17857142857143,0.85714285714286,0
0.0004382324038737,0.00077152056656352,702,83.5,0.21428571428571,0.85714285714286,0
0.00039461131081734,0.00076050759810087,703,83.5,0.25,0.85714285714286,0
0.00034770765018399,0.00075218479930637,704,83.5,0.28571428571429,0.85714285714286,0
0.00029897515745568,0.000745527012858,705,83.5,0.32142857142857,0.85714285714286,0
0.00024794624563229,0.00074111031832162,706,83.5,0.35714285714286,0.85714285714286,0
0.00019634941700782,0.00073795497848633,707,83.5,0.39285714285714,0.85714285714286,0
0.00014313352514966,0.00073555540346803,708,83.5,0.42857142857143,0.85714285714286,0
8.9566357780704e-05,0.00073232708273692,709,83.5,0.46428571428571,0.85714285714286,0
3.3073143304182e-05,0.00072900238768897,710,83.5,0.5,0.85714285714286,0
-2.3690530774342e-05,0.00072883014729465,711,83.5,0.53571428571429,0.85714285714286,0
-8.0219383306336e-05,0.00072880657157836,712,83.5,0.57142857142857,0.85714285714286,0
-0.00013565218989419,0.00073170147435785,713,83.5,0.60714285714286,0.85714285714286,0
-0.00018820847851719,0.0007348379471933,714,83.5,0.64285714285714,0.85714285714286,0
-0.00024006105204608,0.00073798010141147,715,83.5,0.67857142857143,0.85714285714286,0
-0.00029030190200845,0.00074270376466454,716,83.5,0.71428571428571,0.85714285714286,0
-0.00033931293546536,0.00074955530575199,717,83.5,0.75,0.85714285714286,0
-0.0003855741235611,0.00075937724043253,718,83.5,0.78571428571429,0.85714285714286,0
-0.00042898342606007,0.00077178349043552,719,83.5,0.82142857142857,0.85714285714286,0
-0.00046842923558725,0.00078731934396717,720,83.5,0.85714285714286,0.85714285714286,0
-0.0005038713459521,0.00080524577924036,721,83.5,0.89285714285714,0.85714285714286,0
-0.00053554977542293,0.00082496780616094,722,83.5,0.92857142857143,0.85714285714286,0
-0.00056401018251712,0.00084540502091582,723,83.5,0.96428571428571,0.85714285714286,0
-0.00058980364266092,0.00086549752357938,724,83.5,1,0.85714285714286,0
0.00061931434619148,0.00089392419201322,725,83.5,0.035714285714286,0.89285714285714,0
0.000641168373591,0.00091045220657737,726,83.5,0,0.89285714285714,0
0.00059360198796669,0.00087711548608116,727,83.5,0.071428571428571,0.89285714285714,0
0.00056368905999251,0.00086110950153629,728,83.5,0.10714285714286,0.89285714285714,0
0.00052939758806166,0.00084674926521063,729,83.5,0.14285714285714,0.89285714285714,0
0.00049074512126506,0.00083469692279675,730,83.5,0.17857142857143,0.89285714285714,0
0.00044823909134308,0.00082490195595577,731,83.5,0.21428571428571,0.89285714285714,0
0.00040224400806893,0.00081733470689899,732,83.5,0.25,0.89285714285714,0
0.00035375274539449,0.00081123599347305,733,83.5,0.28571428571429,0.89285714285714,0
0.00030284676639142,0.00080674603979769,734,83.5,0.32142857142857,0.89285714285714,0
0.0002508816398606,0.00080333937821454,735,83.5,0.35714285714286,0.89285714285714,0
0.00019785091816851,0.00080099701852203,736,83.5,0.39285714285714,0.89285714285714,0
0.00014491757382697,0.00079909868359187,737,83.5,0.42857142857143,0.89285714285714,0
9.0311085431078e-05,0.00079761279508022,738,83.5,0.46428571428571,0.89285714285714,0
3.4245002663309e-05,0.00079677012538166,739,83.5,0.5,0.89285714285714,0
-2.3073171353447e-05,0.00079577704047997,740,83.5,0.53571428571429,0.89285714285714,0
-8.0067466232689e-05,0.0007959673615206,741,83.5,0.57142857142857,0.89285714285714,0
-0.00013579013532484,0.00079622924945695,742,83.5,0.60714285714286,0.89285714285714,0
-0.00018996653828713,0.0007976527520188,743,83.5,0.64285714285714,0.89285714285714,0
-0.00024260753865329,0.0008001341445448,744,83.5,0.67857142857143,0.89285714285714,0
-0.00029494147538442,0.00080373026493205,745,83.5,0.71428571428571,0.89285714285714,0
-0.00034586345764704,0.00080895361914994,746,83.5,0.75,0.89285714285714,0
-0.00039491091052961,0.00081589514090768,747,83.5,0.78571428571429,0.89285714285714,0
-0.00044075132133138,0.00082502581967114,748,83.5,0.82142857142857,0.89285714285714,0
-0.00048294773609127,0.00083626846452667,749,83.5,0.85714285714286,0.89285714285714,0
-0.00052074158127347,0.00084995612369756,750,83.5,0.89285714285714,0.89285714285714,0
-0.00055406949601546,0.00086557206837109,751,83.5,0.92857142857143,0.89285714285714,0
-0.0005830700227383,0.00088239418039921,752,83.5,0.96428571428571,0.89285714285714,0
-0.00060809663071116,0.00089930189815124,753,83.5,1,0.89285714285714,0
0.00063412092687027,0.00092753187081706,754,83.5,0.035714285714286,0.92857142857143,0
0.00065527294924865,0.00093958410784481,755,83.5,0,0.92857142857143,0
0.00060788958713659,0.00091548741849004,756,83.5,0.071428571428571,0.92857142857143,0
0.00057649282406363,0.00090430455299864,757,83.5,0.10714285714286,0.92857142857143,0
0.00054011755534753,0.00089463898820293,758,83.5,0.14285714285714,0.92857142857143,0
0.00049937107492869,0.00088667649498229,759,83.5,0.17857142857143,0.92857142857143,0
0.00045487584682384,0.00088047042547265,760,83.5,0.21428571428571,0.92857142857143,0
0.00040753258040918,0.00087561707141157,761,83.5,0.25,0.92857142857143,0
0.00035759559539614,0.00087198470936063,762,83.5,0.28571428571429,0.92857142857143,0
0.00030596586401196,0.00086904397289968,763,83.5,0.32142857142857,0.92857142857143,0
0.00025291024771464,0.0008666731758824,764,83.5,0.35714285714286,0.92857142857143,0
0.0001994325935425,0.00086466031332695,765,83.5,0.39285714285714,0.92857142857143,0
0.00014496740826812,0.00086346174264692,766,83.5,0.42857142857143,0.92857142857143,0
8.9955014480085e-05,0.00086339177235144,767,83.5,0.46428571428571,0.92857142857143,0
3.4129516711882e-05,0.0008634740469785,768,83.5,0.5,0.92857142857143,0
-2.2252473369142e-05,0.00086330488580854,769,83.5,0.53571428571429,0.92857142857143,0
-7.8778754376635e-05,0.00086252555107506,770,83.5,0.57142857142857,0.92857142857143,0
-0.00013475890295463,0.00086194580344089,771,83.5,0.60714285714286,0.92857142857143,0
-0.00019011825222914,0.00086202364001133,772,83.5,0.64285714285714,0.92857142857143,0
-0.00024479561371884,0.0008636863061204,773,83.5,0.67857142857143,0.92857142857143,0
-0.00029830892371216,0.00086654089042659,774,83.5,0.71428571428571,0.92857142857143,0
-0.00035079731804901,0.00087014967454613,775,83.5,0.75,0.92857142857143,0
-0.0004012197926666,0.00087470316813803,776,83.5,0.78571428571429,0.92857142857143,0
-0.00044896642085619,0.00088039195774717,777,83.5,0.82142857142857,0.92857142857143,0
-0.00049306239078865,0.00088770712991907,778,83.5,0.85714285714286,0.92857142857143,0
-0.00053301160106798,0.00089674897055721,779,83.5,0.89285714285714,0.92857142857143,0
-0.00056809269108641,0.00090754687288608,780,83.5,0.92857142857143,0.92857142857143,0
-0.00059800268703188,0.00091952255219404,781,83.5,0.96428571428571,0.92857142857143,0
-0.00062270478686171,0.00093185180355847,782,83.5,1,0.92857142857143,0
0.00064362259631215,0.0009612015613787,783,83.5,0.035714285714286,0.96428571428571,0
0.00066443378982623,0.00096758178055437,784,83.5,0,0.96428571428571,0
0.00061685403818773,0.00095490212534698,785,83.5,0.071428571428571,0.96428571428571,0
0.00058427912643235,0.0009491841070433,786,83.5,0.10714285714286,0.96428571428571,0
0.00054652606877715,0.00094432383420231,787,83.5,0.14285714285714,0.96428571428571,0
0.00050435299744218,0.0009404192917187,788,83.5,0.17857142857143,0.96428571428571,0
0.00045874793998377,0.0009373385112603,789,83.5,0.21428571428571,0.96428571428571,0
0.00041033517213306,0.00093506728404644,790,83.5,0.25,0.96428571428571,0
0.00035997016047765,0.00093337289653894,791,83.5,0.28571428571429,0.96428571428571,0
0.00030786102280532,0.00093198920043688,792,83.5,0.32142857142857,0.96428571428571,0
0.00025460781037812,0.00093057432182789,793,83.5,0.35714285714286,0.96428571428571,0
0.00020002420770303,0.00092943004666241,794,83.5,0.39285714285714,0.96428571428571,0
0.00014475229718924,0.00092897723774338,795,83.5,0.42857142857143,0.96428571428571,0
8.9120571277711e-05,0.00092910670938728,796,83.5,0.46428571428571,0.96428571428571,0
3.3690783814877e-05,0.00092954964170368,797,83.5,0.5,0.96428571428571,0
-2.1722284138199e-05,0.00092956761236451,798,83.5,0.53571428571429,0.96428571428571,0
-7.7361958619897e-05,0.00092896143606722,799,83.5,0.57142857142857,0.96428571428571,0
-0.00013350412433185,0.0009281931015839,800,83.5,0.60714285714286,0.96428571428571,0
-0.00018988600881098,0.00092810045297511,801,83.5,0.64285714285714,0.96428571428571,0
-0.00024585408422626,0.00092882437240505,802,83.5,0.67857142857143,0.96428571428571,0
-0.00030073744002897,0.00093040510049494,803,83.5,0.71428571428571,0.96428571428571,0
-0.00035383184777568,0.00093242278391508,804,83.5,0.75,0.96428571428571,0
-0.00040501397570573,0.00093462172145364,805,83.5,0.78571428571429,0.96428571428571,0
-0.0004535865472182,0.00093733502496569,806,83.5,0.82142857142857,0.96428571428571,0
-0.00049903576787137,0.00094085347840261,807,83.5,0.85714285714286,0.96428571428571,0
-0.00054038217929598,0.00094538126904057,808,83.5,0.89285714285714,0.96428571428571,0
-0.00057682344556567,0.00095085201525795,809,83.5,0.92857142857143,0.96428571428571,0
-0.00060754389627155,0.00095708794324826,810,83.5,0.96428571428571,0.96428571428571,0
-0.00063221008746213,0.00096360712434127,811,83.5,1,0.96428571428571,0
0.00064690515325504,0.000995,812,83.5,0.035714285714286,1,0
0.00066761622479469,0.000995,813,83.5,0,1,0
0.00061989690302255,0.000995,814,83.5,0.071428571428571,1,0
0.00058690370302779,0.000995,815,83.5,0.10714285714286,1,0
0.00054862158088533,0.000995,816,83.5,0.14285714285714,1,0
0.00050603895463901,0.000995,817,83.5,0.17857142857143,1,0
0.0004599352009174,0.000995,818,83.5,0.21428571428571,1,0
0.00041128828255151,0.000995,819,83.5,0.25,1,0
0.00036065153433932,0.000995,820,83.5,0.28571428571429,1,0
0.00030868327874136,0.000995,821,83.5,0.32142857142857,1,0
0.00025509996963298,0.000995,822,83.5,0.35714285714286,1,0
0.00020027047703612,0.000995,823,83.5,0.39285714285714,1,0
0.00014453448728475,0.000995,824,83.5,0.42857142857143,1,0
8.8800474235064e-05,0.000995,825,83.5,0.46428571428571,1,0
3.3430672517102e-05,0.000995,826,83.5,0.5,1,0
-2.1508650638278e-05,0.000995,827,83.5,0.53571428571429,1,0
-7.6802558259608e-05,0.000995,828,83.5,0.57142857142857,1,0
-0.00013295805043475,0.000995,829,83.5,0.60714285714286,1,0
-0.00018971281106969,0.000995,830,83.5,0.64285714285714,1,0
-0.00024622314587911,0.000995,831,83.5,0.67857142857143,1,0
-0.00030151355230887,0.000995,832,83.5,0.71428571428571,1,0
-0.00035499029562556,0.000995,833,83.5,0.75,1,0
-0.00040619999829202,0.000995,834,83.5,0.78571428571429,1,0
-0.00045511900865298,0.000995,835,83.5,0.82142857142857,1,0
-0.00050095489555789,0.000995,836,83.5,0.85714285714286,1,0
-0.00054286989939891,0.000995,837,83.5,0.89285714285714,1,0
-0.00057976702612381,0.000995,838,83.5,0.92857142857143,1,0
-0.00061083337093369,0.000995,839,83.5,0.96428571428571,1,0
-0.00063551209720303,0.000995,840,83.5,1,1,0
