disp_x,disp_y,id,vonmises_stress_nodal,x,y,z
0,0,0,83.5,0,0,0
0,0,1,83.5,0.035714285714286,0,0
2.4015864253997e-05,2.2603997770708e-05,2,83.5,0.035714285714286,0.035714285714286,0
6.715427125057e-05,5.0589712696049e-05,3,83.5,0,0.035714285714286,0
0,0,4,81.752186309867,0.071428571428571,0,0
1.2893086515482e-05,1.6227276996992e-05,5,82.626093154933,0.071428571428571,0.035714285714286,0
0,0,6,76.287532878399,0.10714285714286,0,0
1.0419401523793e-05,1.453620230874e-05,7,79.51000515634,0.10714285714286,0.035714285714286,0
0,0,8,70.260309909507,0.14285714285714,0,0
8.9422117563139e-06,1.4115145939481e-05,9,74.234920532463,0.14285714285714,0.035714285714286,0
0,0,10,65.915242945404,0.17857142857143,0,0
7.5612874098658e-06,1.3532561175423e-05,11,69.126305779739,0.17857142857143,0.035714285714286,0
0,0,12,62.274025316673,0.21428571428571,0,0
6.4028951682001e-06,1.3104715351353e-05,13,65.259703254827,0.21428571428571,0.035714285714286,0
0,0,14,59.358126789203,0.25,0,0
5.37843465873e-06,1.2736607086088e-05,15,62.05004670884,0.25,0.035714285714286,0
0,0,16,56.975371818053,0.28571428571429,0,0
4.4473272676117e-06,1.2436241226909e-05,17,59.471057973253,0.28571428571429,0.035714285714286,0
0,0,18,55.020481275321,0.32142857142857,0,0
3.5839529521502e-06,1.2180428751767e-05,19,57.368942421658,0.32142857142857,0.035714285714286,0
0,0,20,53.414081391071,0.35714285714286,0,0
2.7639707367168e-06,1.1962271847214e-05,21,55.660463691124,0.35714285714286,0.035714285714286,0
0,0,22,52.0947179988,0.39285714285714,0,0
1.9717987261819e-06,1.177027950218e-05,23,54.271874420879,0.39285714285714,0.035714285714286,0
0,0,24,51.012957726895,0.42857142857143,0,0
1.1942432164379e-06,1.1595766667228e-05,25,53.144316510045,0.42857142857143,0.035714285714286,0
0,0,26,50.119201101418,0.46428571428571,0,0
4.2499263848979e-07,1.142929799983e-05,27,52.22002186938,0.46428571428571,0.035714285714286,0
0,0,28,49.354611440782,0.5,0,0
-3.3419799018666e-07,1.1257629870758e-05,29,51.421932022183,0.5,0.035714285714286,0
0,0,30,48.629857633,0.53571428571429,0,0
-1.0586822706502e-06,1.1074989173493e-05,31,50.658268541407,0.53571428571429,0.035714285714286,0
0,0,32,47.892041720056,0.57142857142857,0,0
-1.6928415317439e-06,1.0859217324249e-05,33,49.810007976503,0.57142857142857,0.035714285714286,0
0,0,34,47.580262337252,0.60714285714286,0,0
-2.1058942645814e-06,1.073231143181e-05,35,49.07214985865,0.60714285714286,0.035714285714286,0
0,0,36,48.652794789091,0.64285714285714,0,0
-2.3813795561366e-06,1.0935909591088e-05,37,49.787624933762,0.64285714285714,0.035714285714286,0
0,0,38,51.713058647636,0.67857142857143,0,0
-2.7714648013342e-06,1.1593413199071e-05,39,53.400552787774,0.67857142857143,0.035714285714286,0
0,0,40,56.137618794988,0.71428571428571,0,0
-3.5941606786687e-06,1.2481802579198e-05,41,59.057401719884,0.71428571428571,0.035714285714286,0
0,0,42,60.617858366267,0.75,0,0
-4.8157063140898e-06,1.3213561025e-05,43,64.232041945282,0.75,0.035714285714286,0
0,0,44,64.401269894893,0.78571428571429,0,0
-6.2402007375079e-06,1.3663191198201e-05,45,67.946109999274,0.78571428571429,0.035714285714286,0
0,0,46,67.571759246694,0.82142857142857,0,0
-7.6858273088023e-06,1.3847721566214e-05,47,71.061922390907,0.82142857142857,0.035714285714286,0
0,0,48,70.908714189904,0.85714285714286,0,0
-9.0752417499168e-06,1.4132096246678e-05,49,74.887445538989,0.85714285714286,0.035714285714286,0
0,0,50,76.286367885239,0.89285714285714,0,0
-1.050145719149e-05,1.4530874092379e-05,51,79.41418732781,0.89285714285714,0.035714285714286,0
0,0,52,81.658483802854,0.92857142857143,0,0
-1.2819660734949e-05,1.6155957766962e-05,53,82.579241901427,0.92857142857143,0.035714285714286,0
0,0,54,83.5,0.96428571428571,0,0
-2.2457542799012e-05,2.1299487130944e-05,55,83.5,0.96428571428571,0.035714285714286,0
0,0,56,83.5,1,0,0
-5.7561347396798e-05,4.3981051336071e-05,57,83.5,1,0.035714285714286,0
6.5191678204604e-05,6.4985885727536e-05,58,83.5,0.035714285714286,0.071428571428571,0
8.7570052709085e-05,9.3444682848082e-05,59,83.5,0,0.071428571428571,0
3.622119140045e-05,4.0433667999998e-05,60,83.5,0.071428571428571,0.071428571428571,0
2.3027724550222e-05,3.1735529742362e-05,61,83.11623871714,0.10714285714286,0.071428571428571,0
1.8475755635113e-05,2.9013228627366e-05,62,80.660311137927,0.14285714285714,0.071428571428571,0
1.5873158765458e-05,2.8013923750327e-05,63,75.770421444119,0.17857142857143,0.071428571428571,0
1.3446219984399e-05,2.6967230302723e-05,64,71.035126576578,0.21428571428571,0.071428571428571,0
1.1328105202772e-05,2.6178232973224e-05,65,67.456596591632,0.25,0.071428571428571,0
9.4094667245622e-06,2.5511462294727e-05,66,64.484150796733,0.28571428571429,0.071428571428571,0
7.6340575287446e-06,2.4963669745398e-05,67,62.113136474208,0.32142857142857,0.071428571428571,0
5.9608563251152e-06,2.4499659704589e-05,68,60.202550850565,0.35714285714286,0.071428571428571,0
4.3534356112827e-06,2.4100141528059e-05,69,58.670925281139,0.39285714285714,0.071428571428571,0
2.7879471838027e-06,2.3743158410743e-05,70,57.450888546432,0.42857142857143,0.071428571428571,0
1.24384988733e-06,2.340737792474e-05,71,56.484064822935,0.46428571428571,0.071428571428571,0
-2.8834847810142e-07,2.3068879453568e-05,72,55.707807960053,0.5,0.071428571428571,0
-1.8056663580509e-06,2.26861386474e-05,73,55.043680779578,0.53571428571429,0.071428571428571,0
-3.2752806112906e-06,2.226228469416e-05,74,54.412102888241,0.57142857142857,0.071428571428571,0
-4.646447097092e-06,2.1783126391028e-05,75,53.365845252753,0.60714285714286,0.071428571428571,0
-5.5975611859853e-06,2.1971594777889e-05,76,53.083780095929,0.64285714285714,0.071428571428571,0
-6.6259094359185e-06,2.3534309252483e-05,77,57.440298780378,0.67857142857143,0.071428571428571,0
-8.3227560436834e-06,2.5834083516103e-05,78,64.897434146242,0.71428571428571,0.071428571428571,0
-1.0752485508234e-05,2.7486458669887e-05,79,70.240448518638,0.75,0.071428571428571,0
-1.3178823109567e-05,2.8154926904418e-05,80,73.67462143821,0.78571428571429,0.071428571428571,0
-1.5680627649498e-05,2.8771708496077e-05,81,77.508751904411,0.82142857142857,0.071428571428571,0
-1.8539227986586e-05,2.9033112360407e-05,82,81.122637515214,0.85714285714286,0.071428571428571,0
-2.2708149040226e-05,3.1242238759533e-05,83,83.021003385191,0.89285714285714,0.071428571428571,0
-3.3470522040102e-05,3.8379320489678e-05,84,83.5,0.92857142857143,0.071428571428571,0
-5.5693233446456e-05,5.7401832096088e-05,85,83.5,0.96428571428571,0.071428571428571,0
-7.3372975119117e-05,8.0039230704542e-05,86,83.5,1,0.071428571428571,0
8.9819908415648e-05,0.00010064477377175,87,83.5,0.035714285714286,0.10714285714286,0
0.00011160949615609,0.00012184729371593,88,83.5,0,0.10714285714286,0
6.6865430633311e-05,7.6708107536689e-05,89,83.5,0.071428571428571,0.10714285714286,0
4.3262678745618e-05,5.6173063714661e-05,90,83.5,0.10714285714286,0.10714285714286,0
3.0046781443667e-05,4.6542521009233e-05,91,83.305545560218,0.14285714285714,0.10714285714286,0
2.4376340748077e-05,4.3102822896703e-05,92,81.204502606604,0.17857142857143,0.10714285714286,0
2.0903753011029e-05,4.1671042809051e-05,93,76.807767768065,0.21428571428571,0.10714285714286,0
1.7654646293847e-05,4.0302182687326e-05,94,72.615837646483,0.25,0.10714285714286,0
1.4740993213199e-05,3.9238058998256e-05,95,69.455433788268,0.28571428571429,0.10714285714286,0
1.2048099082896e-05,3.8349873471008e-05,96,66.843364164298,0.32142857142857,0.10714285714286,0
9.5127605423014e-06,3.761458964076e-05,97,64.756145145199,0.35714285714286,0.10714285714286,0
7.0928535167799e-06,3.6985932324814e-05,98,63.076336042914,0.39285714285714,0.10714285714286,0
4.7456168474168e-06,3.6435718673272e-05,99,61.757584509673,0.42857142857143,0.10714285714286,0
2.4393063277157e-06,3.5933213753729e-05,100,60.773839068628,0.46428571428571,0.10714285714286,0
1.3813804197617e-07,3.544118724791e-05,101,60.10863988055,0.5,0.10714285714286,0
-2.1928565843011e-06,3.4923599951772e-05,102,59.760763810783,0.53571428571429,0.10714285714286,0
-4.5930498473587e-06,3.4310560219412e-05,103,59.675733298361,0.57142857142857,0.10714285714286,0
-7.0928674344363e-06,3.3718425029034e-05,104,59.474836729672,0.60714285714286,0.10714285714286,0
-9.656363114589e-06,3.3025156754717e-05,105,56.642369244955,0.64285714285714,0.10714285714286,0
-1.1948265398362e-05,3.589649850186e-05,106,63.98723151398,0.67857142857143,0.10714285714286,0
-1.4952065279346e-05,4.0376704786762e-05,107,75.348310078292,0.71428571428571,0.10714285714286,0
-1.7375745678674e-05,4.2209679843198e-05,108,77.64201602696,0.75,0.10714285714286,0
-2.0104486861828e-05,4.3403938595283e-05,109,79.564358402415,0.78571428571429,0.10714285714286,0
-2.3631670327949e-05,4.4241253037137e-05,110,81.982709136852,0.82142857142857,0.10714285714286,0
-2.9201287706099e-05,4.6966106390547e-05,111,83.439549071177,0.85714285714286,0.10714285714286,0
-4.0364929085472e-05,5.2620912375299e-05,112,83.5,0.89285714285714,0.10714285714286,0
-5.6738479095332e-05,6.8018874061501e-05,113,83.5,0.92857142857143,0.10714285714286,0
-7.4766467167219e-05,8.7615566360633e-05,114,83.5,0.96428571428571,0.10714285714286,0
-9.3334578279058e-05,0.00010555758863054,115,83.5,1,0.10714285714286,0
0.00011176824680966,0.00013149738019542,116,83.5,0.035714285714286,0.14285714285714,0
0.000131845168776,0.00015244428524406,117,83.5,0,0.14285714285714,0
9.0187411526736e-05,0.00011033488367371,118,83.5,0.071428571428571,0.14285714285714,0
6.8064804692365e-05,8.854407365178e-05,119,83.5,0.10714285714286,0.14285714285714,0
4.750854121538e-05,7.0425349513227e-05,120,83.5,0.14285714285714,0.14285714285714,0
3.4667506295792e-05,6.0676602293493e-05,121,83.352765469521,0.17857142857143,0.14285714285714,0
2.8321847214855e-05,5.6874712597571e-05,122,81.533885820959,0.21428571428571,0.14285714285714,0
2.4188153338426e-05,5.514022665509e-05,123,77.683259034587,0.25,0.14285714285714,0
2.0286989190154e-05,5.3564956183236e-05,124,74.074525717549,0.28571428571429,0.14285714285714,0
1.6698359906941e-05,5.2325050935046e-05,125,71.409964758747,0.32142857142857,0.14285714285714,0
1.3327479784969e-05,5.1285676318255e-05,126,69.155768080034,0.35714285714286,0.14285714285714,0
1.0112098379193e-05,5.0408871484766e-05,127,67.317218196367,0.39285714285714,0.14285714285714,0
7.0173033237526e-06,4.9648921932158e-05,128,65.885588855711,0.42857142857143,0.14285714285714,0
3.9863518657749e-06,4.8979458423488e-05,129,64.863632033896,0.46428571428571,0.14285714285714,0
9.6835957332225e-07,4.8361605429548e-05,130,64.251109949359,0.5,0.14285714285714,0
-2.0989812969348e-06,4.7741773537321e-05,131,64.067810586474,0.53571428571429,0.14285714285714,0
-5.2996719132578e-06,4.7094277598214e-05,132,64.246569038036,0.57142857142857,0.14285714285714,0
-8.7097899971471e-06,4.6287399319808e-05,133,64.397598720631,0.60714285714286,0.14285714285714,0
-1.2534701181199e-05,4.5635538825624e-05,134,59.903562079164,0.64285714285714,0.14285714285714,0
-1.5513258846175e-05,4.4292528548104e-05,135,69.45876074059,0.67857142857143,0.14285714285714,0
-1.9254510656926e-05,4.55654146484e-05,136,83.18946825444,0.71428571428571,0.14285714285714,0
-2.1430688194888e-05,4.8065734393229e-05,137,83.074680270472,0.75,0.14285714285714,0
-2.4770340231848e-05,5.043771916586e-05,138,83.385212016032,0.78571428571429,0.14285714285714,0
-3.0995635685427e-05,5.4149155406305e-05,139,83.5,0.82142857142857,0.14285714285714,0
-4.2513442937345e-05,6.1319813735832e-05,140,83.5,0.85714285714286,0.14285714285714,0
-6.1217760957865e-05,7.4947500657986e-05,141,83.5,0.89285714285714,0.14285714285714,0
-7.5875787463923e-05,9.5761343021388e-05,142,83.5,0.92857142857143,0.14285714285714,0
-9.3412201237454e-05,0.00011495156253647,143,83.5,0.96428571428571,0.14285714285714,0
-0.00011200809980353,0.00013476742300409,144,83.5,1,0.14285714285714,0
0.00013209373977165,0.00016194997460865,145,83.5,0.035714285714286,0.17857142857143,0
0.00015237504538575,0.00018201501669291,146,83.5,0,0.17857142857143,0
0.00011159990836387,0.00014157393622053,147,83.5,0.071428571428571,0.17857142857143,0
9.0164272372054e-05,0.00012078677754668,148,83.5,0.10714285714286,0.17857142857143,0
6.8802447558488e-05,0.00010044809310216,149,83.5,0.14285714285714,0.17857142857143,0
4.994315949724e-05,8.3978572017047e-05,150,83.5,0.17857142857143,0.17857142857143,0
3.7402379194328e-05,7.4415632271845e-05,151,83.388554032981,0.21428571428571,0.17857142857143,0
3.0575482214327e-05,7.0383253849711e-05,152,81.848668114482,0.25,0.17857142857143,0
2.5910889343474e-05,6.8490619540899e-05,153,78.645722148055,0.28571428571429,0.17857142857143,0
2.1463473782443e-05,6.6834723550956e-05,154,75.617762313303,0.32142857142857,0.17857142857143,0
1.7277941904689e-05,6.5487900221407e-05,155,73.238907332062,0.35714285714286,0.17857142857143,0
1.3328070310962e-05,6.4323104854268e-05,156,71.23060592048,0.39285714285714,0.17857142857143,0
9.5320460425987e-06,6.3340802133171e-05,157,69.68873102533,0.42857142857143,0.17857142857143,0
5.8405215265971e-06,6.2497561119714e-05,158,68.568984934775,0.46428571428571,0.17857142857143,0
2.188390404181e-06,6.1754581780302e-05,159,67.855558351965,0.5,0.17857142857143,0
-1.4815800380623e-06,6.1064624252985e-05,160,67.518540796407,0.53571428571429,0.17857142857143,0
-5.2243113288666e-06,6.0347347761716e-05,161,67.422627828831,0.57142857142857,0.17857142857143,0
-9.1225368983183e-06,5.9537285592814e-05,162,66.752729206213,0.60714285714286,0.17857142857143,0
-1.2933519400591e-05,5.8187857272121e-05,163,63.817790192911,0.64285714285714,0.17857142857143,0
-1.6238351778892e-05,5.4370826490418e-05,164,72.520599626476,0.67857142857143,0.17857142857143,0
-2.257994685071e-05,5.2726650490276e-05,165,83.5,0.71428571428571,0.17857142857143,0
-2.7268609149197e-05,5.4764067275317e-05,166,83.5,0.75,0.17857142857143,0
-3.3242439810331e-05,6.004306583268e-05,167,83.5,0.78571428571429,0.17857142857143,0
-4.4058319403682e-05,6.8491359250497e-05,168,83.5,0.82142857142857,0.17857142857143,0
-6.0992508036086e-05,8.1981717576117e-05,169,83.5,0.85714285714286,0.17857142857143,0
-8.1481022785594e-05,9.9467410616174e-05,170,83.5,0.89285714285714,0.17857142857143,0
-9.7145300979681e-05,0.00012087704977411,171,83.5,0.92857142857143,0.17857142857143,0
-0.00011360530641755,0.00014284901418682,172,83.5,0.96428571428571,0.17857142857143,0
-0.00013278149819801,0.00016422479018553,173,83.5,1,0.17857142857143,0
0.00015215068789477,0.00019201562743827,174,83.5,0.035714285714286,0.21428571428571,0
0.00017283893864387,0.00021256424129357,175,83.5,0,0.21428571428571,0
0.00013174965670452,0.00017210360479122,176,83.5,0.071428571428571,0.21428571428571,0
0.00011107884353731,0.00015206603223429,177,83.5,0.10714285714286,0.21428571428571,0
8.9754426315506e-05,0.00013179608730178,178,83.5,0.14285714285714,0.21428571428571,0
6.8969728063629e-05,0.00011260112001427,179,83.5,0.17857142857143,0.21428571428571,0
5.1096701788159e-05,9.7275912091374e-05,180,83.5,0.21428571428571,0.21428571428571,0
3.8691219193191e-05,8.7931059960314e-05,181,83.445633448984,0.25,0.21428571428571,0
3.1355509090234e-05,8.378425239324e-05,182,82.275851486267,0.28571428571429,0.21428571428571,0
2.6151219318734e-05,8.1885514894915e-05,183,79.566528981368,0.32142857142857,0.21428571428571,0
2.1270331083383e-05,8.0136331383869e-05,184,76.808777442156,0.35714285714286,0.21428571428571,0
1.6640554023222e-05,7.8678901564923e-05,185,74.757532903615,0.39285714285714,0.21428571428571,0
1.2217062806561e-05,7.7455059922053e-05,186,73.125819485373,0.42857142857143,0.21428571428571,0
7.9153273832734e-06,7.6426691655781e-05,187,71.837384995582,0.46428571428571,0.21428571428571,0
3.7149915110871e-06,7.5541159823018e-05,188,70.918411266847,0.5,0.21428571428571,0
-4.3956886676656e-07,7.4750592957368e-05,189,70.278889441548,0.53571428571429,0.21428571428571,0
-4.5742323716969e-06,7.3954169954007e-05,190,69.65197869402,0.57142857142857,0.21428571428571,0
-8.6091021843278e-06,7.2947642506151e-05,191,68.667905336249,0.60714285714286,0.21428571428571,0
-1.2450268986299e-05,7.1113948434265e-05,192,68.56461967821,0.64285714285714,0.21428571428571,0
-1.6191471204303e-05,6.680526132474e-05,193,76.291582945529,0.67857142857143,0.21428571428571,0
-2.5689509488218e-05,6.3430998782073e-05,194,83.5,0.71428571428571,0.21428571428571,0
-3.4988458473783e-05,6.5226085692885e-05,195,83.5,0.75,0.21428571428571,0
-4.6160278035748e-05,7.3506033323809e-05,196,83.5,0.78571428571429,0.21428571428571,0
-6.1302449713724e-05,8.737201581443e-05,197,83.5,0.82142857142857,0.21428571428571,0
-8.0262203679958e-05,0.00010496588730602,198,83.5,0.85714285714286,0.21428571428571,0
-0.00010233098019254,0.00012489869593457,199,83.5,0.89285714285714,0.21428571428571,0
-0.00011899451501315,0.00014697444563176,200,83.5,0.92857142857143,0.21428571428571,0
-0.0001366247956716,0.00017024627751602,201,83.5,0.96428571428571,0.21428571428571,0
-0.00015576980596732,0.00019464429258303,202,83.5,1,0.21428571428571,0
0.00017243255929024,0.00022273257980028,203,83.5,0.035714285714286,0.25,0
0.00019431919953258,0.00024414729543544,204,83.5,0,0.25,0
0.00015151110583887,0.00020237209145022,205,83.5,0.071428571428571,0.25,0
0.00013100531754003,0.00018271097892491,206,83.5,0.10714285714286,0.25,0
0.00011019499620011,0.00016306061599426,207,83.5,0.14285714285714,0.25,0
8.8975395931533e-05,0.00014330141013445,208,83.5,0.17857142857143,0.25,0
6.8680907866863e-05,0.00012499568024193,209,83.5,0.21428571428571,0.25,0
5.1288069799856e-05,0.00011064159807919,210,83.5,0.25,0.25,0
3.8562510343634e-05,0.00010169994754038,211,83.5,0.28571428571429,0.25,0
3.0703024134097e-05,9.7293590628264e-05,212,82.519801952724,0.32142857142857,0.25,0
2.520641877944e-05,9.5161516653126e-05,213,80.297179318957,0.35714285714286,0.25,0
2.0007079496215e-05,9.3420116981076e-05,214,77.995347243382,0.39285714285714,0.25,0
1.4946617006212e-05,9.1951190615689e-05,215,76.172676397521,0.42857142857143,0.25,0
1.0121063124195e-05,9.0698701296709e-05,216,74.785125811047,0.46428571428571,0.25,0
5.4088947872347e-06,8.9662119286192e-05,217,73.672796398452,0.5,0.25,0
8.0677790503054e-07,8.8740753871269e-05,218,72.822924947721,0.53571428571429,0.25,0
-3.6929502097027e-06,8.7831661620323e-05,219,72.199074442658,0.57142857142857,0.25,0
-8.0727536060086e-06,8.6634768088983e-05,220,71.878740096184,0.60714285714286,0.25,0
-1.2304049341858e-05,8.4776569943667e-05,221,74.523921347534,0.64285714285714,0.25,0
-1.6826777737891e-05,8.1425738446433e-05,222,80.363707854062,0.67857142857143,0.25,0
-2.9715097070393e-05,7.8344091268018e-05,223,83.5,0.71428571428571,0.25,0
-4.4728274075827e-05,8.1317052923878e-05,224,83.5,0.75,0.25,0
-6.1441423774562e-05,9.1663613432476e-05,225,83.5,0.78571428571429,0.25,0
-7.9911018565474e-05,0.00010883505095742,226,83.5,0.82142857142857,0.25,0
-0.00010086668971777,0.00012925716658131,227,83.5,0.85714285714286,0.25,0
-0.00012392429028347,0.00015152630657616,228,83.5,0.89285714285714,0.25,0
-0.00014201800056636,0.00017448224678083,229,83.5,0.92857142857143,0.25,0
-0.0001611362224132,0.0001990120608403,230,83.5,0.96428571428571,0.25,0
-0.00018202268889494,0.00022551905682465,231,83.5,1,0.25,0
0.00019365856193852,0.00025459741027548,232,83.5,0.035714285714286,0.28571428571429,0
0.00021733541022918,0.00027766438190495,233,83.5,0,0.28571428571429,0
0.00017155756862976,0.00023328488231227,234,83.5,0.071428571428571,0.28571428571429,0
0.00015042074594639,0.00021311203428923,235,83.5,0.10714285714286,0.28571428571429,0
0.00012992627586315,0.00019375026253882,236,83.5,0.14285714285714,0.28571428571429,0
0.00010915784865804,0.00017442165389581,237,83.5,0.17857142857143,0.28571428571429,0
8.7952277286015e-05,0.00015529943798677,238,83.5,0.21428571428571,0.28571428571429,0
6.7346424029509e-05,0.00013844650587331,239,83.5,0.25,0.28571428571429,0
4.9968634033703e-05,0.00012451138988318,240,83.5,0.28571428571429,0.28571428571429,0
3.7453545665932e-05,0.0001151679728785,241,83.5,0.32142857142857,0.28571428571429,0
2.9184282373424e-05,0.00011061322488636,242,82.828558419052,0.35714285714286,0.28571428571429,0
2.3173906736886e-05,0.00010850361393991,243,81.118004354843,0.39285714285714,0.28571428571429,0
1.7728740194971e-05,0.0001067386345603,244,79.125335579272,0.42857142857143,0.28571428571429,0
1.2324042626997e-05,0.00010530977649384,245,77.506238352037,0.46428571428571,0.28571428571429,0
7.1256094129525e-06,0.00010407374485501,246,76.354222921792,0.5,0.28571428571429,0
2.0652716849535e-06,0.0001030348368474,247,75.617707388713,0.53571428571429,0.28571428571429,0
-2.9105167349088e-06,0.00010204332497337,248,75.405946169792,0.57142857142857,0.28571428571429,0
-7.8968416818258e-06,0.00010094268117059,249,76.784309487299,0.60714285714286,0.28571428571429,0
-1.2918090793906e-05,9.9153977894226e-05,250,80.287116484961,0.64285714285714,0.28571428571429,0
-1.9198498132981e-05,9.8326801869115e-05,251,82.974919991977,0.67857142857143,0.28571428571429,0
-3.6101407666239e-05,9.7738161875722e-05,252,83.5,0.71428571428571,0.28571428571429,0
-5.5434020649221e-05,0.00010256626160602,253,83.5,0.75,0.28571428571429,0
-7.7044666978424e-05,0.00011474234720951,254,83.5,0.78571428571429,0.28571428571429,0
-9.9458700213311e-05,0.00013252408043808,255,83.5,0.82142857142857,0.28571428571429,0
-0.00012208272164015,0.00015498484495221,256,83.5,0.85714285714286,0.28571428571429,0
-0.00014683545321219,0.00017939641360063,257,83.5,0.89285714285714,0.28571428571429,0
-0.00016610960993622,0.00020351064840137,258,83.5,0.92857142857143,0.28571428571429,0
-0.00018745057800925,0.00022999972156799,259,83.5,0.96428571428571,0.28571428571429,0
-0.00020976579223859,0.00025753056159446,260,83.5,1,0.28571428571429,0
0.00021649530479235,0.00028843301766202,261,83.5,0.035714285714286,0.32142857142857,0
0.00024191601833673,0.00031289208307655,262,83.5,0,0.32142857142857,0
0.00019249006232826,0.00026534613983044,263,83.5,0.071428571428571,0.32142857142857,0
0.00017028808097976,0.0002441819479936,264,83.5,0.10714285714286,0.32142857142857,0
0.0001490736544972,0.00022403083145969,265,83.5,0.14285714285714,0.32142857142857,0
0.00012892987473575,0.00020488335620394,266,83.5,0.17857142857143,0.32142857142857,0
0.00010708420512007,0.00018763577915158,267,83.5,0.21428571428571,0.32142857142857,0
8.5030342222713e-05,0.00016884404012438,268,83.5,0.25,0.32142857142857,0
6.5574221372826e-05,0.00015128747205772,269,83.5,0.28571428571429,0.32142857142857,0
4.8586792694909e-05,0.00013805281964505,270,83.5,0.32142857142857,0.32142857142857,0
3.5353247254774e-05,0.00012904704166881,271,83.5,0.35714285714286,0.32142857142857,0
2.6720841476032e-05,0.00012397207418841,272,83.086876107709,0.39285714285714,0.32142857142857,0
2.0258799778333e-05,0.00012185191414377,273,81.948846127148,0.42857142857143,0.32142857142857,0
1.4478036060539e-05,0.00012018374167954,274,80.29550669936,0.46428571428571,0.32142857142857,0
8.7987603554777e-06,0.00011878042664233,275,79.077315428408,0.5,0.32142857142857,0
3.195307450555e-06,0.00011765663304649,276,78.695248129077,0.53571428571429,0.32142857142857,0
-2.3644989809601e-06,0.0001167163643775,277,79.355231651747,0.57142857142857,0.32142857142857,0
-7.8681776000224e-06,0.00011569441884452,278,81.447532284806,0.60714285714286,0.32142857142857,0
-1.4554053610016e-05,0.00011547207576432,279,83.143770013649,0.64285714285714,0.32142857142857,0
-2.4911496152483e-05,0.00011801251953655,280,83.5,0.67857142857143,0.32142857142857,0
-4.3785501887617e-05,0.0001200951480525,281,83.5,0.71428571428571,0.32142857142857,0
-6.6965378174633e-05,0.00012867652877856,282,83.5,0.75,0.32142857142857,0
-9.2644711263387e-05,0.00014181497609209,283,83.5,0.78571428571429,0.32142857142857,0
-0.00011886732424099,0.00015992636622606,284,83.5,0.82142857142857,0.32142857142857,0
-0.00014475036292565,0.00018190001056371,285,83.5,0.85714285714286,0.32142857142857,0
-0.00017025353884517,0.00020861018146158,286,83.5,0.89285714285714,0.32142857142857,0
-0.00019235776127375,0.00023507429777207,287,83.5,0.92857142857143,0.32142857142857,0
-0.0002150162141164,0.00026226316256668,288,83.5,0.96428571428571,0.32142857142857,0
-0.00023807330936944,0.00029048610456612,289,83.5,1,0.32142857142857,0
0.00024089582114881,0.000323939545786,290,83.5,0.035714285714286,0.35714285714286,0
0.00026751107004385,0.00034946248026,291,83.5,0,0.35714285714286,0
0.00021523714819737,0.00029949749414336,292,83.5,0.071428571428571,0.35714285714286,0
0.00019108860374233,0.00027610439562082,293,83.5,0.10714285714286,0.35714285714286,0
0.00016938488717194,0.00025483535998167,294,83.5,0.14285714285714,0.35714285714286,0
0.00014936581356409,0.00023359366313821,295,83.5,0.17857142857143,0.35714285714286,0
0.00012573643815431,0.00021350957724106,296,83.5,0.21428571428571,0.35714285714286,0
0.00010266820492781,0.0001972607069474,297,83.5,0.25,0.35714285714286,0
8.3412263583982e-05,0.00018148441311933,298,83.5,0.28571428571429,0.35714285714286,0
6.2843548181182e-05,0.00016535327805405,299,83.5,0.32142857142857,0.35714285714286,0
4.6394566163787e-05,0.00015173617723343,300,83.5,0.35714285714286,0.35714285714286,0
3.275572961169e-05,0.00014290106390512,301,83.5,0.39285714285714,0.35714285714286,0
2.3319894293981e-05,0.00013771912321532,302,83.368043239481,0.42857142857143,0.35714285714286,0
1.6528012020173e-05,0.00013521951693316,303,82.642557628031,0.46428571428571,0.35714285714286,0
1.0342321861212e-05,0.00013379144498802,304,81.94861106887,0.5,0.35714285714286,0
4.2157672727889e-06,0.00013265944103352,305,81.853956018335,0.53571428571429,0.35714285714286,0
-1.9228006780448e-06,0.00013171389784457,306,82.550057547982,0.57142857142857,0.35714285714286,0
-9.1628729749629e-06,0.00013203473598006,307,83.370198209967,0.60714285714286,0.35714285714286,0
-1.939437829416e-05,0.00013545502090687,308,83.5,0.64285714285714,0.35714285714286,0
-3.4170573081411e-05,0.00014314805202309,309,83.5,0.67857142857143,0.35714285714286,0
-5.399207520306e-05,0.00015347630818435,310,83.5,0.71428571428571,0.35714285714286,0
-8.0036415334054e-05,0.00016485443219995,311,83.5,0.75,0.35714285714286,0
-0.00010842585588322,0.00017984991341172,312,83.5,0.78571428571429,0.35714285714286,0
-0.00013788120654631,0.00019775049363873,313,83.5,0.82142857142857,0.35714285714286,0
-0.00016729794646056,0.00021964970795507,314,83.5,0.85714285714286,0.35714285714286,0
-0.00019403362884386,0.00024297647280564,315,83.5,0.89285714285714,0.35714285714286,0
-0.00021923713706789,0.00026810474358449,316,83.5,0.92857142857143,0.35714285714286,0
-0.00024305502953317,0.00029552727459402,317,83.5,0.96428571428571,0.35714285714286,0
-0.0002666159456668,0.00032372374437693,318,83.5,1,0.35714285714286,0
0.00026636879830761,0.00036067800494464,319,83.5,0.035714285714286,0.39285714285714,0
0.00029350474736233,0.00038657538977365,320,83.5,0,0.39285714285714,0
0.00023981882558653,0.00033499222997285,321,83.5,0.071428571428571,0.39285714285714,0
0.00021448302925626,0.00031008753932947,322,83.5,0.10714285714286,0.39285714285714,0
0.00019110552794787,0.00028539616257175,323,83.5,0.14285714285714,0.39285714285714,0
0.00017048428207708,0.00026353592971549,324,83.5,0.17857142857143,0.39285714285714,0
0.00014420643473149,0.00024248406338547,325,83.5,0.21428571428571,0.39285714285714,0
0.00012148191188122,0.00022316606603038,326,83.5,0.25,0.39285714285714,0
9.9440659963875e-05,0.00020577364218579,327,83.5,0.28571428571429,0.39285714285714,0
7.8580268539525e-05,0.00019184609735983,328,83.5,0.32142857142857,0.39285714285714,0
6.0527916567427e-05,0.00017933850699579,329,83.5,0.35714285714286,0.39285714285714,0
4.3047336988654e-05,0.00016644140763093,330,83.5,0.39285714285714,0.39285714285714,0
2.9391153670364e-05,0.00015661443967564,331,83.5,0.42857142857143,0.39285714285714,0
1.952016850025e-05,0.0001515464097413,332,83.5,0.46428571428571,0.39285714285714,0
1.1792058233574e-05,0.00014924693914759,333,83.471226805755,0.5,0.39285714285714,0
4.9843973908816e-06,0.00014805708820997,334,83.471226805755,0.53571428571429,0.39285714285714,0
-3.1485549164662e-06,0.00014871000272317,335,83.5,0.57142857142857,0.39285714285714,0
-1.386074403481e-05,0.00015215909060639,336,83.5,0.60714285714286,0.39285714285714,0
-2.8642000675287e-05,0.00016000488400168,337,83.5,0.64285714285714,0.39285714285714,0
-4.7167488746318e-05,0.00017182894541163,338,83.5,0.67857142857143,0.39285714285714,0
-6.9542470088465e-05,0.00018696874761031,339,83.5,0.71428571428571,0.39285714285714,0
-9.5452083861698e-05,0.0002031843724694,340,83.5,0.75,0.39285714285714,0
-0.00012519569627171,0.0002198353284375,341,83.5,0.78571428571429,0.39285714285714,0
-0.00015647692803271,0.0002387364355729,342,83.5,0.82142857142857,0.39285714285714,0
-0.00018706676369423,0.0002587736883011,343,83.5,0.85714285714286,0.39285714285714,0
-0.00021654128384506,0.00028027286062285,344,83.5,0.89285714285714,0.39285714285714,0
-0.0002443931238348,0.0003039469621557,345,83.5,0.92857142857143,0.39285714285714,0
-0.00027060110584754,0.00032976049914024,346,83.5,0.96428571428571,0.39285714285714,0
-0.00029509528192725,0.00035743337643644,347,83.5,1,0.39285714285714,0
0.00029250684976316,0.00039762390842913,348,83.5,0.035714285714286,0.42857142857143,0
0.00031969367558199,0.00042403838391736,349,83.5,0,0.42857142857143,0
0.00026590495056173,0.00037130030929816,350,83.5,0.071428571428571,0.42857142857143,0
0.00024017442672772,0.00034474806018432,351,83.5,0.10714285714286,0.42857142857143,0
0.00021514498985916,0.00031919161557042,352,83.5,0.14285714285714,0.42857142857143,0
0.0001907424011333,0.00029415378754182,353,83.5,0.17857142857143,0.42857142857143,0
0.0001663628280004,0.00027175501022602,354,83.5,0.21428571428571,0.42857142857143,0
0.00014035664020792,0.00025144133277555,355,83.5,0.25,0.42857142857143,0
0.00011637968978555,0.00023276660286651,356,83.5,0.28571428571429,0.42857142857143,0
9.4150271051688e-05,0.00021673027150563,357,83.5,0.32142857142857,0.42857142857143,0
7.4504075554559e-05,0.00020131209599515,358,83.5,0.35714285714286,0.42857142857143,0
5.5196589077251e-05,0.000190474747328,359,83.5,0.39285714285714,0.42857142857143,0
4.0095745767042e-05,0.00018109144663557,360,83.5,0.42857142857143,0.42857142857143,0
2.4508637382721e-05,0.00017123267078391,361,83.5,0.46428571428571,0.42857142857143,0
1.4241583883565e-05,0.00016644870973418,362,83.5,0.5,0.42857142857143,0
3.9520689308737e-06,0.00016624405198182,363,83.5,0.53571428571429,0.42857142857143,0
-7.5027610261994e-06,0.00016924572840487,364,83.5,0.57142857142857,0.42857142857143,0
-2.2769257407797e-05,0.00017695352628049,365,83.5,0.60714285714286,0.42857142857143,0
-4.135315374604e-05,0.00018842528485962,366,83.5,0.64285714285714,0.42857142857143,0
-6.3357955867166e-05,0.00020382611067761,367,83.5,0.67857142857143,0.42857142857143,0
-8.7695193849232e-05,0.00022167105582731,368,83.5,0.71428571428571,0.42857142857143,0
-0.00011439008956107,0.00024108752228524,369,83.5,0.75,0.42857142857143,0
-0.00014352968288462,0.00026083675436739,370,83.5,0.78571428571429,0.42857142857143,0
-0.00017454810688684,0.00028015442067595,371,83.5,0.82142857142857,0.42857142857143,0
-0.00020612634361084,0.00029974701987033,372,83.5,0.85714285714286,0.42857142857143,0
-0.00023740266323842,0.00032027567140241,373,83.5,0.89285714285714,0.42857142857143,0
-0.00026770172422949,0.00034232052504479,374,83.5,0.92857142857143,0.42857142857143,0
-0.00029622469882949,0.00036622780896444,375,83.5,0.96428571428571,0.42857142857143,0
-0.00032272375417947,0.00039196649072803,376,83.5,1,0.42857142857143,0
0.00031928030454343,0.000434530453473,377,83.5,0.035714285714286,0.46428571428571,0
0.00034615540739718,0.00046128350719119,378,83.5,0,0.46428571428571,0
0.00029286124226561,0.00040741416664307,379,83.5,0.071428571428571,0.46428571428571,0
0.00026660835670838,0.00038074311451131,380,83.5,0.10714285714286,0.46428571428571,0
0.00024034352411397,0.00035442901538356,381,83.5,0.14285714285714,0.46428571428571,0
0.00021386371472464,0.00033008620193517,382,83.5,0.17857142857143,0.46428571428571,0
0.00018867666218702,0.00030451790528129,383,83.5,0.21428571428571,0.46428571428571,0
0.00016147052902714,0.00028127499139544,384,83.5,0.25,0.46428571428571,0
0.00013514405380251,0.00026197985950159,385,83.5,0.28571428571429,0.46428571428571,0
0.00011157465109548,0.00024251078408747,386,83.5,0.32142857142857,0.46428571428571,0
8.8473233936239e-05,0.00022718437525082,387,83.5,0.35714285714286,0.46428571428571,0
6.8571818654471e-05,0.00021288164886088,388,83.5,0.39285714285714,0.46428571428571,0
5.0512232595178e-05,0.000200750411514,389,83.5,0.42857142857143,0.46428571428571,0
3.2806072639997e-05,0.00019435558682146,390,83.5,0.46428571428571,0.46428571428571,0
1.5992324291429e-05,0.00018883269205471,391,83.5,0.5,0.46428571428571,0
1.5078742671669e-06,0.00018840740117654,392,83.5,0.53571428571429,0.46428571428571,0
-1.5713879868715e-05,0.00019502045872493,393,83.5,0.57142857142857,0.46428571428571,0
-3.4866729136105e-05,0.00020549567840614,394,83.5,0.60714285714286,0.46428571428571,0
-5.7216994440954e-05,0.00022053675881388,395,83.5,0.64285714285714,0.46428571428571,0
-8.1568588073968e-05,0.00023805941727063,396,83.5,0.67857142857143,0.46428571428571,0
-0.00010767785155644,0.0002578752599945,397,83.5,0.71428571428571,0.46428571428571,0
-0.0001351087255747,0.00027907309299698,398,83.5,0.75,0.46428571428571,0
-0.00016374396449118,0.00030064259952243,399,83.5,0.78571428571429,0.46428571428571,0
-0.00019378383680531,0.00032148865441205,400,83.5,0.82142857142857,0.46428571428571,0
-0.00022527151811742,0.00034168464296189,401,83.5,0.85714285714286,0.46428571428571,0
-0.00025737302172604,0.00036198114164598,402,83.5,0.89285714285714,0.46428571428571,0
-0.00028911349572947,0.0003829001528752,403,83.5,0.92857142857143,0.46428571428571,0
-0.00031965931041032,0.00040492582190803,404,83.5,0.96428571428571,0.46428571428571,0
-0.00034833720033099,0.00042855484779202,405,83.5,1,0.46428571428571,0
0.00034648502630431,0.00047103830836326,406,83.5,0.035714285714286,0.5,0
0.00037303876787226,0.00049824599773188,407,83.5,0,0.5,0
0.00031986088583269,0.00044403809275892,408,83.5,0.071428571428571,0.5,0
0.00029297133888618,0.000417284095238,409,83.5,0.10714285714286,0.5,0
0.00026569500504333,0.00039168148459763,410,83.5,0.14285714285714,0.5,0
0.00023895388434434,0.00036587956766433,411,83.5,0.17857142857143,0.5,0
0.00021138356022414,0.00034194171851656,412,83.5,0.21428571428571,0.5,0
0.00018531432301358,0.0003162423838668,413,83.5,0.25,0.5,0
0.00015659185650981,0.00029141026460321,414,83.5,0.28571428571429,0.5,0
0.00012960266529688,0.00027245819027238,415,83.5,0.32142857142857,0.5,0
0.00010551814777454,0.00025354743600688,416,83.5,0.35714285714286,0.5,0
8.327377609796e-05,0.00023752361224773,417,83.5,0.39285714285714,0.5,0
6.0742227098542e-05,0.00022588013260094,418,83.5,0.42857142857143,0.5,0
3.9894239770794e-05,0.00021670118269612,419,83.5,0.46428571428571,0.5,0
1.7768854090065e-05,0.00021506233553608,420,83.5,0.5,0.5,0
-4.3117490213685e-06,0.00021766680818754,421,83.5,0.53571428571429,0.5,0
-2.5804085337084e-05,0.00022481398642406,422,83.5,0.57142857142857,0.5,0
-4.9830392864594e-05,0.00023856492011885,423,83.5,0.60714285714286,0.5,0
-7.4911608275245e-05,0.00025496941866195,424,83.5,0.64285714285714,0.5,0
-0.00010129043995651,0.00027426450720315,425,83.5,0.67857142857143,0.5,0
-0.0001286352384367,0.00029517697597197,426,83.5,0.71428571428571,0.5,0
-0.00015671927903305,0.00031731210423883,427,83.5,0.75,0.5,0
-0.00018532910730256,0.00033974678074721,428,83.5,0.78571428571429,0.5,0
-0.00021477222395362,0.00036198085789607,429,83.5,0.82142857142857,0.5,0
-0.00024541952324009,0.00038349015160425,430,83.5,0.85714285714286,0.5,0
-0.00027719156808356,0.00040427859474444,431,83.5,0.89285714285714,0.5,0
-0.00030938267036614,0.00042479783772389,432,83.5,0.92857142857143,0.5,0
-0.00034117225848265,0.0004456131750703,433,83.5,0.96428571428571,0.5,0
-0.00037183652862743,0.0004674132666363,434,83.5,1,0.5,0
0.0003735598398021,0.00050778536961538,435,83.5,0.035714285714286,0.53571428571429,0
0.00040018776283897,0.00053473929852946,436,83.5,0,0.53571428571429,0
0.00034652163265714,0.00048100560234157,437,83.5,0.071428571428571,0.53571428571429,0
0.00031900413803953,0.00045489828827098,438,83.5,0.10714285714286,0.53571428571429,0
0.00029151905148963,0.00042880771740167,439,83.5,0.14285714285714,0.53571428571429,0
0.00026355954524328,0.00040378667083491,440,83.5,0.17857142857143,0.53571428571429,0
0.00023652720290966,0.0003784299205535,441,83.5,0.21428571428571,0.53571428571429,0
0.00020857106048455,0.00035419695499177,442,83.5,0.25,0.53571428571429,0
0.00018149548680171,0.00032858561521379,443,83.5,0.28571428571429,0.53571428571429,0
0.00015054591903726,0.00030246730232107,444,83.5,0.32142857142857,0.53571428571429,0
0.00012444786336126,0.00028259494749325,445,83.5,0.35714285714286,0.53571428571429,0
9.7404840691727e-05,0.00026686437213436,446,83.5,0.39285714285714,0.53571428571429,0
7.2081126109795e-05,0.00025335970001624,447,83.5,0.42857142857143,0.53571428571429,0
4.5303409898467e-05,0.00024618362284127,448,83.5,0.46428571428571,0.53571428571429,0
1.7708857829298e-05,0.00024426630960817,449,83.5,0.5,0.53571428571429,0
-1.1804995028278e-05,0.00024962395682693,450,83.5,0.53571428571429,0.53571428571429,0
-3.8672927818224e-05,0.00026057307800115,451,83.5,0.57142857142857,0.53571428571429,0
-6.5787830418132e-05,0.00027431307793793,452,83.5,0.60714285714286,0.53571428571429,0
-9.3590606700993e-05,0.00029203402246839,453,83.5,0.64285714285714,0.53571428571429,0
-0.00012170803047484,0.00031179609712976,454,83.5,0.67857142857143,0.53571428571429,0
-0.00015021349335429,0.00033346843539569,455,83.5,0.71428571428571,0.53571428571429,0
-0.00017888155037275,0.00035586622041615,456,83.5,0.75,0.53571428571429,0
-0.00020774869591422,0.00037878327833998,457,83.5,0.78571428571429,0.53571428571429,0
-0.00023698092805363,0.00040177391870625,458,83.5,0.82142857142857,0.53571428571429,0
-0.0002668796622852,0.00042439507635996,459,83.5,0.85714285714286,0.53571428571429,0
-0.00029771410722858,0.00044616570542104,460,83.5,0.89285714285714,0.53571428571429,0
-0.00032944839056942,0.00046707554886167,461,83.5,0.92857142857143,0.53571428571429,0
-0.00036162154592249,0.00048756924007299,462,83.5,0.96428571428571,0.53571428571429,0
-0.00039358084284003,0.0005083429871572,463,83.5,1,0.53571428571429,0
0.00040017140228215,0.00054478257135216,464,83.5,0.035714285714286,0.57142857142857,0
0.00042708239436412,0.00057134004696278,465,83.5,0,0.57142857142857,0
0.00037271586319252,0.00051862941016996,466,83.5,0.071428571428571,0.57142857142857,0
0.0003450192179883,0.00049253743547691,467,83.5,0.10714285714286,0.57142857142857,0
0.00031691532589035,0.00046697971068772,468,83.5,0.14285714285714,0.57142857142857,0
0.00028913807398249,0.00044131520969589,469,83.5,0.17857142857143,0.57142857142857,0
0.00026096818221447,0.00041640092920683,470,83.5,0.21428571428571,0.57142857142857,0
0.00023349289334433,0.00039150474204544,471,83.5,0.25,0.57142857142857,0
0.00020468561276264,0.0003674783286459,472,83.5,0.28571428571429,0.57142857142857,0
0.00017549734422152,0.00034339835219157,473,83.5,0.32142857142857,0.57142857142857,0
0.00014468155677916,0.00031884376646403,474,83.5,0.35714285714286,0.57142857142857,0
0.00011274214730739,0.0002986351423576,475,83.5,0.39285714285714,0.57142857142857,0
8.2150596121254e-05,0.00028673215264877,476,83.5,0.42857142857143,0.57142857142857,0
4.9663251726415e-05,0.00028105196253526,477,83.5,0.46428571428571,0.57142857142857,0
1.5567977906378e-05,0.00028044037072953,478,83.5,0.5,0.57142857142857,0
-1.814499332503e-05,0.00028567820266645,479,83.5,0.53571428571429,0.57142857142857,0
-5.4160094518687e-05,0.00029674894782959,480,83.5,0.57142857142857,0.57142857142857,0
-8.2515707490488e-05,0.00031337699037379,481,83.5,0.60714285714286,0.57142857142857,0
-0.00011236100388427,0.00033088020933171,482,83.5,0.64285714285714,0.57142857142857,0
-0.00014237455655246,0.00035107677464177,483,83.5,0.67857142857143,0.57142857142857,0
-0.00017202389207827,0.00037247264459859,484,83.5,0.71428571428571,0.57142857142857,0
-0.0002013561228059,0.00039494398402052,485,83.5,0.75,0.57142857142857,0
-0.00023057814632841,0.00041793970604352,486,83.5,0.78571428571429,0.57142857142857,0
-0.00025983891353523,0.00044125622660516,487,83.5,0.82142857142857,0.57142857142857,0
-0.00028932120238302,0.00046445608988148,488,83.5,0.85714285714286,0.57142857142857,0
-0.00031933692538729,0.00048712332811929,489,83.5,0.89285714285714,0.57142857142857,0
-0.00035020761821701,0.00050893022098612,490,83.5,0.92857142857143,0.57142857142857,0
-0.00038199933960318,0.00052993922482849,491,83.5,0.96428571428571,0.57142857142857,0
-0.00041436407298602,0.00055058495536936,492,83.5,1,0.57142857142857,0
0.00042623209266875,0.00058220860517141,493,83.5,0.035714285714286,0.60714285714286,0
0.000453439706367,0.00060812482634626,494,83.5,0,0.60714285714286,0
0.0003986413398196,0.00055632807041059,495,83.5,0.071428571428571,0.60714285714286,0
0.00037064854929408,0.00053069158331114,496,83.5,0.10714285714286,0.60714285714286,0
0.00034264040989648,0.00050498120638398,497,83.5,0.14285714285714,0.60714285714286,0
0.00031430643021464,0.00047962665121985,498,83.5,0.17857142857143,0.60714285714286,0
0.00028613040822369,0.00045442158910909,499,83.5,0.21428571428571,0.60714285714286,0
0.00025723109340677,0.00043010114877415,500,83.5,0.25,0.60714285714286,0
0.00022824611848835,0.00040664346797899,501,83.5,0.28571428571429,0.60714285714286,0
0.00019812547303581,0.00038373553187049,502,83.5,0.32142857142857,0.60714285714286,0
0.00016532960080632,0.0003622524762812,503,83.5,0.35714285714286,0.60714285714286,0
0.00012918988933939,0.00034387421850308,504,83.5,0.39285714285714,0.60714285714286,0
9.2493931019248e-05,0.00032898045311295,505,83.5,0.42857142857143,0.60714285714286,0
5.2256022083046e-05,0.00032079522148688,506,83.5,0.46428571428571,0.60714285714286,0
1.4601609170545e-05,0.00032146728716223,507,83.5,0.5,0.60714285714286,0
-2.6442506254203e-05,0.00032862226845591,508,83.5,0.53571428571429,0.60714285714286,0
-6.6397317567613e-05,0.00033884301937409,509,83.5,0.57142857142857,0.60714285714286,0
-9.9689271685578e-05,0.00035350921986296,510,83.5,0.60714285714286,0.60714285714286,0
-0.00013130109546891,0.00037216465159229,511,83.5,0.64285714285714,0.60714285714286,0
-0.00016282407118014,0.00039157114139928,512,83.5,0.67857142857143,0.60714285714286,0
-0.00019363210275108,0.00041255105577949,513,83.5,0.71428571428571,0.60714285714286,0
-0.00022380926354136,0.00043454187109894,514,83.5,0.75,0.60714285714286,0
-0.00025351827761681,0.00045739787143794,515,83.5,0.78571428571429,0.60714285714286,0
-0.00028296618862348,0.00048065904294695,516,83.5,0.82142857142857,0.60714285714286,0
-0.00031234170762678,0.00050406571257026,517,83.5,0.85714285714286,0.60714285714286,0
-0.00034191839304872,0.00052727731219444,518,83.5,0.89285714285714,0.60714285714286,0
-0.00037206429385545,0.0005499833426967,519,83.5,0.92857142857143,0.60714285714286,0
-0.00040309883451109,0.00057194597152313,520,83.5,0.96428571428571,0.60714285714286,0
-0.00043506218641406,0.00059318667057377,521,83.5,1,0.60714285714286,0
0.00045189122299183,0.00061970207530718,522,83.5,0.035714285714286,0.64285714285714,0
0.0004791883329585,0.00064522310082044,523,83.5,0,0.64285714285714,0
0.00042417772679866,0.00059426578828896,524,83.5,0.071428571428571,0.64285714285714,0
0.00039626793187889,0.00056873538724095,525,83.5,0.10714285714286,0.64285714285714,0
0.00036802599583843,0.00054333975456388,526,83.5,0.14285714285714,0.64285714285714,0
0.00033961231988219,0.00051806617495298,527,83.5,0.17857142857143,0.64285714285714,0
0.00031053360722452,0.00049341484210645,528,83.5,0.21428571428571,0.64285714285714,0
0.00028100312193778,0.00046959449511209,529,83.5,0.25,0.64285714285714,0
0.00025044342379478,0.00044691227590571,530,83.5,0.28571428571429,0.64285714285714,0
0.00021798309904205,0.0004262803475154,531,83.5,0.32142857142857,0.64285714285714,0
0.00018257897111376,0.00040837004367487,532,83.5,0.35714285714286,0.64285714285714,0
0.00014433481355673,0.0003924311819569,533,83.5,0.39285714285714,0.64285714285714,0
0.0001015590912031,0.0003806329585128,534,83.5,0.42857142857143,0.64285714285714,0
5.7367206258859e-05,0.00037397509354917,535,83.5,0.46428571428571,0.64285714285714,0
1.2679762927746e-05,0.00037125482610275,536,83.5,0.5,0.64285714285714,0
-3.2952877453054e-05,0.0003745833242323,537,83.5,0.53571428571429,0.64285714285714,0
-7.6340238818301e-05,0.00038539454947887,538,83.5,0.57142857142857,0.64285714285714,0
-0.00011429251994891,0.00039850630987554,539,83.5,0.60714285714286,0.64285714285714,0
-0.00014973423491555,0.00041473323603073,540,83.5,0.64285714285714,0.64285714285714,0
-0.00018266650984595,0.00043361894209964,541,83.5,0.67857142857143,0.64285714285714,0
-0.00021472493476936,0.00045361760291163,542,83.5,0.71428571428571,0.64285714285714,0
-0.00024588448886085,0.00047496957711419,543,83.5,0.75,0.64285714285714,0
-0.00027628663742496,0.00049724988508053,544,83.5,0.78571428571429,0.64285714285714,0
-0.00030611841098668,0.00052022824603167,545,83.5,0.82142857142857,0.64285714285714,0
-0.00033564535903446,0.00054355766255043,546,83.5,0.85714285714286,0.64285714285714,0
-0.00036513314424757,0.00056701758157705,547,83.5,0.89285714285714,0.64285714285714,0
-0.000394884645222,0.00059032697014285,548,83.5,0.92857142857143,0.64285714285714,0
-0.00042521742857728,0.00061318037329045,549,83.5,0.96428571428571,0.64285714285714,0
-0.00045635299216986,0.0006353027062147,550,83.5,1,0.64285714285714,0
0.00047714580543499,0.00065729321643751,551,83.5,0.035714285714286,0.67857142857143,0
0.00050445291786816,0.00068233589996199,552,83.5,0,0.67857142857143,0
0.00044952642823411,0.00063209785271887,553,83.5,0.071428571428571,0.67857142857143,0
0.00042155100825061,0.00060691137191462,554,83.5,0.10714285714286,0.67857142857143,0
0.00039322704167538,0.00058180825600755,555,83.5,0.14285714285714,0.67857142857143,0
0.00036421805765429,0.00055716338289876,556,83.5,0.17857142857143,0.67857142857143,0
0.00033445731951609,0.00053325316480483,557,83.5,0.21428571428571,0.67857142857143,0
0.00030344492393786,0.00051050491913257,558,83.5,0.25,0.67857142857143,0
0.00027051655748966,0.00048975755001195,559,83.5,0.28571428571429,0.67857142857143,0
0.00023499630962583,0.00047186772961673,560,83.5,0.32142857142857,0.67857142857143,0
0.00019681798325903,0.00045675764361731,561,83.5,0.35714285714286,0.67857142857143,0
0.00015465498863029,0.00044506330033308,562,83.5,0.39285714285714,0.67857142857143,0
0.00010936119139826,0.00043651284965839,563,83.5,0.42857142857143,0.67857142857143,0
6.1591653575043e-05,0.00043065597604331,564,83.5,0.46428571428571,0.67857142857143,0
1.2193614215787e-05,0.00042918215367525,565,83.5,0.5,0.67857142857143,0
-3.7115538959343e-05,0.00043221210355593,566,83.5,0.53571428571429,0.67857142857143,0
-8.3427644114464e-05,0.00043791322785354,567,83.5,0.57142857142857,0.67857142857143,0
-0.00012620744166845,0.00044735295481555,568,83.5,0.60714285714286,0.67857142857143,0
-0.0001651324950232,0.00046070237910164,569,83.5,0.64285714285714,0.67857142857143,0
-0.00020123140332433,0.00047715366459862,570,83.5,0.67857142857143,0.67857142857143,0
-0.00023491017781752,0.00049605721232958,571,83.5,0.71428571428571,0.67857142857143,0
-0.00026729053797279,0.00051630867257744,572,83.5,0.75,0.67857142857143,0
-0.00029859532532256,0.00053779158699459,573,83.5,0.78571428571429,0.67857142857143,0
-0.00032907743952073,0.00056017153495783,574,83.5,0.82142857142857,0.67857142857143,0
-0.00035900365196608,0.00058322496968099,575,83.5,0.85714285714286,0.67857142857143,0
-0.00038866347807845,0.00060666829461041,576,83.5,0.89285714285714,0.67857142857143,0
-0.00041830647092915,0.00063025073115752,577,83.5,0.92857142857143,0.67857142857143,0
-0.00044816837121707,0.00065364638091275,578,83.5,0.96428571428571,0.67857142857143,0
-0.0004784619928085,0.00067648474275377,579,83.5,1,0.67857142857143,0
0.00050209308582286,0.00069473893141869,580,83.5,0.035714285714286,0.71428571428571,0
0.0005292112377736,0.00071940179398587,581,83.5,0,0.71428571428571,0
0.00047452327350335,0.00066994257357965,582,83.5,0.071428571428571,0.71428571428571,0
0.00044648197950776,0.00064517000131684,583,83.5,0.10714285714286,0.71428571428571,0
0.00041771597071275,0.00062076059741572,584,83.5,0.14285714285714,0.71428571428571,0
0.00038801091229543,0.00059703804923868,585,83.5,0.17857142857143,0.71428571428571,0
0.00035688039123023,0.0005744653948465,586,83.5,0.21428571428571,0.71428571428571,0
0.00032370179382942,0.00055375739680217,587,83.5,0.25,0.71428571428571,0
0.00028787144122961,0.00053568471106556,588,83.5,0.28571428571429,0.71428571428571,0
0.00024922893875881,0.0005205429447758,589,83.5,0.32142857142857,0.71428571428571,0
0.00020717334351816,0.00050890831993237,590,83.5,0.35714285714286,0.71428571428571,0
0.00016219333585815,0.00050055969672898,591,83.5,0.39285714285714,0.71428571428571,0
0.00011442929492416,0.00049463026128721,592,83.5,0.42857142857143,0.71428571428571,0
6.4030670668757e-05,0.0004912124170169,593,83.5,0.46428571428571,0.71428571428571,0
1.2193838803131e-05,0.00049043709581672,594,83.5,0.5,0.71428571428571,0
-3.8578429521413e-05,0.00049150091394161,595,83.5,0.53571428571429,0.71428571428571,0
-8.7598607059039e-05,0.00049452748969894,596,83.5,0.57142857142857,0.71428571428571,0
-0.00013408067722393,0.00050053209057477,597,83.5,0.60714285714286,0.71428571428571,0
-0.00017731801193441,0.00051029009742721,598,83.5,0.64285714285714,0.71428571428571,0
-0.00021689487087582,0.00052372442258434,599,83.5,0.67857142857143,0.71428571428571,0
-0.00025346677669738,0.00054017820180189,600,83.5,0.71428571428571,0.71428571428571,0
-0.00028758969817374,0.00055896280375303,601,83.5,0.75,0.71428571428571,0
-0.00032016432503306,0.00057925328803906,602,83.5,0.78571428571429,0.71428571428571,0
-0.00035158391283018,0.00060079899818334,603,83.5,0.82142857142857,0.71428571428571,0
-0.0003821760018397,0.0006232949825919,604,83.5,0.85714285714286,0.71428571428571,0
-0.00041221896219988,0.00064647136497915,605,83.5,0.89285714285714,0.71428571428571,0
-0.00044195294202299,0.00067000066660487,606,83.5,0.92857142857143,0.71428571428571,0
-0.00047155439365612,0.0006935409338377,607,83.5,0.96428571428571,0.71428571428571,0
-0.00050115677140601,0.0007166785437578,608,83.5,1,0.71428571428571,0
0.0005266017241082,0.00073206162140724,609,83.5,0.035714285714286,0.75,0
0.00055346987947956,0.00075614298782436,610,83.5,0,0.75,0
0.00049905225625703,0.00070782006707597,611,83.5,0.071428571428571,0.75,0
0.00047066945925214,0.00068381984497061,612,83.5,0.10714285714286,0.75,0
0.0004412003096886,0.0006604618731977,613,83.5,0.14285714285714,0.75,0
0.00041017907497776,0.00063824809728614,614,83.5,0.17857142857143,0.75,0
0.00037701186798002,0.00061782298075901,615,83.5,0.21428571428571,0.75,0
0.00034112408072921,0.00059986060485863,616,83.5,0.25,0.75,0
0.0003022433229409,0.00058474096817064,617,83.5,0.28571428571429,0.75,0
0.00026003221133184,0.00057290035987992,618,83.5,0.32142857142857,0.75,0
0.00021487549380344,0.00056430087327222,619,83.5,0.35714285714286,0.75,0
0.00016713780250006,0.00055845828065038,620,83.5,0.39285714285714,0.75,0
0.00011711085468043,0.0005550570059838,621,83.5,0.42857142857143,0.75,0
6.5360535419584e-05,0.00055347943064286,622,83.5,0.46428571428571,0.75,0
1.3176094842676e-05,0.00055265844927727,623,83.5,0.5,0.75,0
-3.8777347693897e-05,0.0005525459909205,624,83.5,0.53571428571429,0.75,0
-8.9689997732292e-05,0.00055393237391151,625,83.5,0.57142857142857,0.75,0
-0.0001389763726541,0.00055746968615947,626,83.5,0.60714285714286,0.75,0
-0.00018572531521291,0.00056389346953673,627,83.5,0.64285714285714,0.75,0
-0.00022922974339001,0.0005737849060878,628,83.5,0.67857142857143,0.75,0
-0.00026918555727153,0.00058713762122016,629,83.5,0.71428571428571,0.75,0
-0.00030608182791424,0.00060344602040013,630,83.5,0.75,0.75,0
-0.00034053277658332,0.0006220885007142,631,83.5,0.78571428571429,0.75,0
-0.00037330898583967,0.00064240039516477,632,83.5,0.82142857142857,0.75,0
-0.00040485572200012,0.00066402977314992,633,83.5,0.85714285714286,0.75,0
-0.00043550021014865,0.00068660628046721,634,83.5,0.89285714285714,0.75,0
-0.0004654795347827,0.00070975075293738,635,83.5,0.92857142857143,0.75,0
-0.00049494594389196,0.00073302943566557,636,83.5,0.96428571428571,0.75,0
-0.00052394826942512,0.00075596480188082,637,83.5,1,0.75,0
0.00055043995043583,0.0007692393546487,638,83.5,0.035714285714286,0.78571428571429,0
0.00057697690702128,0.00079242815132661,639,83.5,0,0.78571428571429,0
0.0005227414699152,0.00074597212138723,640,83.5,0.071428571428571,0.78571428571429,0
0.00049371468648468,0.00072318511644585,641,83.5,0.10714285714286,0.78571428571429,0
0.000462974058093,0.00070147787644768,642,83.5,0.14285714285714,0.78571428571429,0
0.00042998943815842,0.00068149733387487,643,83.5,0.17857142857143,0.78571428571429,0
0.00039423352410621,0.0006638687419375,644,83.5,0.21428571428571,0.78571428571429,0
0.00035538787083214,0.00064899269274674,645,83.5,0.25,0.78571428571429,0
0.00031322308844303,0.0006371877629116,646,83.5,0.28571428571429,0.78571428571429,0
0.0002680036084621,0.00062842526764929,647,83.5,0.32142857142857,0.78571428571429,0
0.00022013638583519,0.00062236904037615,648,83.5,0.35714285714286,0.78571428571429,0
0.00017010842347083,0.00061871187730517,649,83.5,0.39285714285714,0.78571428571429,0
0.0001185859622473,0.00061691422756237,650,83.5,0.42857142857143,0.78571428571429,0
6.6491514488609e-05,0.00061596827551463,651,83.5,0.46428571428571,0.78571428571429,0
1.4112440728067e-05,0.00061525485431446,652,83.5,0.5,0.78571428571429,0
-3.8337928060477e-05,0.0006148600988581,653,83.5,0.53571428571429,0.78571428571429,0
-9.0523209508004e-05,0.00061526679221854,654,83.5,0.57142857142857,0.78571428571429,0
-0.00014167560815394,0.00061711203711859,655,83.5,0.60714285714286,0.78571428571429,0
-0.00019109539447107,0.00062099020410901,656,83.5,0.64285714285714,0.78571428571429,0
-0.00023794183201033,0.00062760206406497,657,83.5,0.67857142857143,0.78571428571429,0
-0.00028158479382862,0.00063748722849191,658,83.5,0.71428571428571,0.78571428571429,0
-0.00032180764053535,0.00065071082522231,659,83.5,0.75,0.78571428571429,0
-0.00035899762788031,0.00066688039406012,660,83.5,0.78571428571429,0.78571428571429,0
-0.00039372888524454,0.00068542015599387,661,83.5,0.82142857142857,0.78571428571429,0
-0.00042664065864533,0.0007057095575799,662,83.5,0.85714285714286,0.78571428571429,0
-0.00045814784594051,0.00072727464589179,663,83.5,0.89285714285714,0.78571428571429,0
-0.00048852102496429,0.00074961048575949,664,83.5,0.92857142857143,0.78571428571429,0
-0.0005178900639919,0.00077216586502732,665,83.5,0.96428571428571,0.78571428571429,0
-0.00054623914815342,0.00079432699717463,666,83.5,1,0.78571428571429,0
0.00057312434623386,0.00080636551096085,667,83.5,0.035714285714286,0.82142857142857,0
0.00059930671540262,0.00082805933241091,668,83.5,0,0.82142857142857,0
0.00054507024167791,0.00078468264526989,669,83.5,0.071428571428571,0.82142857142857,0
0.00051492940398361,0.000763793007706,670,83.5,0.10714285714286,0.82142857142857,0
0.00048232715950183,0.00074445451848884,671,83.5,0.14285714285714,0.82142857142857,0
0.00044685051769115,0.00072733147113394,672,83.5,0.17857142857143,0.82142857142857,0
0.00040821268306657,0.0007128617746595,673,83.5,0.21428571428571,0.82142857142857,0
0.00036626172819406,0.00070130889241356,674,83.5,0.25,0.82142857142857,0
0.00032120166472236,0.00069263346744137,675,83.5,0.28571428571429,0.82142857142857,0
0.00027342483096427,0.00068653550368578,676,83.5,0.32142857142857,0.82142857142857,0
0.00022345008041452,0.00068265714370326,677,83.5,0.35714285714286,0.82142857142857,0
0.00017195857693071,0.00068050419625719,678,83.5,0.39285714285714,0.82142857142857,0
0.00011980222230028,0.00067933078009385,679,83.5,0.42857142857143,0.82142857142857,0
6.7397290915142e-05,0.00067859172123394,680,83.5,0.46428571428571,0.82142857142857,0
1.4851105870355e-05,0.00067808121092244,681,83.5,0.5,0.82142857142857,0
-3.7896701083953e-05,0.00067776982329613,682,83.5,0.53571428571429,0.82142857142857,0
-9.0640120841252e-05,0.00067781278732308,683,83.5,0.57142857142857,0.82142857142857,0
-0.00014296790033678,0.00067859681671259,684,83.5,0.60714285714286,0.82142857142857,0
-0.00019419188967119,0.00068069678667163,685,83.5,0.64285714285714,0.82142857142857,0
-0.00024362385717563,0.00068474318418349,686,83.5,0.67857142857143,0.82142857142857,0
-0.00029050501053877,0.00069143845924251,687,83.5,0.71428571428571,0.82142857142857,0
-0.00033426414977546,0.00070130146478303,688,83.5,0.75,0.82142857142857,0
-0.00037470698433182,0.00071441584449022,689,83.5,0.78571428571429,0.82142857142857,0
-0.00041211013006106,0.00073042540760208,690,83.5,0.82142857142857,0.82142857142857,0
-0.00044693805300101,0.00074874607564016,691,83.5,0.85714285714286,0.82142857142857,0
-0.00047966993011975,0.00076870927797993,692,83.5,0.89285714285714,0.82142857142857,0
-0.00051059822431726,0.00078966173148001,693,83.5,0.92857142857143,0.82142857142857,0
-0.00053984174365424,0.00081087997666254,694,83.5,0.96428571428571,0.82142857142857,0
-0.00056735181236808,0.00083158867246447,695,83.5,1,0.82142857142857,0
0.00059392050280869,0.00084355152885558,696,83.5,0.035714285714286,0.85714285714286,0
0.00061975268286511,0.00086290335833195,697,83.5,0,0.85714285714286,0
0.00056524423415659,0.00082433733750301,698,83.5,0.071428571428571,0.85714285714286,0
0.00053355494110656,0.00080618189934224,699,83.5,0.10714285714286,0.85714285714286,0
0.0004986552958132,0.00078989075493976,700,83.5,0.14285714285714,0.85714285714286,0
0.00046041433608486,0.00077602864535102,701,83.5,0.17857142857143,0.85714285714286,0
0.00041880815751801,0.00076490220861317,702,83.5,0.21428571428571,0.85714285714286,0
0.00037405557815533,0.00075650161778719,703,83.5,0.25,0.85714285714286,0
0.00032655247094143,0.00075055544300982,704,83.5,0.28571428571429,0.85714285714286,0
0.00027682188743177,0.00074667399302319,705,83.5,0.32142857142857,0.85714285714286,0
0.00022551029383803,0.00074435931346517,706,83.5,0.35714285714286,0.85714285714286,0
0.00017336051812158,0.00074297999490772,707,83.5,0.39285714285714,0.85714285714286,0
0.00012084305643006,0.00074207434273131,708,83.5,0.42857142857143,0.85714285714286,0
6.8171326494862e-05,0.00074146890851229,709,83.5,0.46428571428571,0.85714285714286,0
1.5361063943495e-05,0.0007411146201904,710,83.5,0.5,0.85714285714286,0
-3.7560939482156e-05,0.00074094635952876,711,83.5,0.53571428571429,0.85714285714286,0
-9.057002231459e-05,0.00074093135411516,712,83.5,0.57142857142857,0.85714285714286,0
-0.0001434484169035,0.00074122093493044,713,83.5,0.60714285714286,0.85714285714286,0
-0.00019580011818294,0.0007422003705438,714,83.5,0.64285714285714,0.85714285714286,0
-0.0002470155611805,0.00074444286189112,715,83.5,0.67857142857143,0.85714285714286,0
-0.00029642812854462,0.00074860396699046,716,83.5,0.71428571428571,0.85714285714286,0
-0.00034332211762079,0.00075535865884976,717,83.5,0.75,0.85714285714286,0
-0.00038713959106423,0.00076516810016592,718,83.5,0.78571428571429,0.85714285714286,0
-0.00042764588360013,0.0007780641231362,719,83.5,0.82142857142857,0.85714285714286,0
-0.00046495993657003,0.00079363943221418,720,83.5,0.85714285714286,0.85714285714286,0
-0.00049933942902023,0.00081121621679769,721,83.5,0.89285714285714,0.85714285714286,0
-0.00053101776800185,0.00082997178195962,722,83.5,0.92857142857143,0.85714285714286,0
-0.00056008555072155,0.00084902594293769,723,83.5,0.96428571428571,0.85714285714286,0
-0.00058651450535278,0.00086745466521425,724,83.5,1,0.85714285714286,0
0.00061181532448629,0.00088095358469284,725,83.5,0.035714285714286,0.89285714285714,0
0.00063737236685024,0.00089688889178063,726,83.5,0,0.89285714285714,0
0.00058232579932243,0.00086525453720262,727,83.5,0.071428571428571,0.89285714285714,0
0.00054887188471273,0.00085069461116964,728,83.5,0.10714285714286,0.89285714285714,0
0.00051154532332071,0.00083799623836309,729,83.5,0.14285714285714,0.89285714285714,0
0.00047055851847276,0.00082762348233534,730,83.5,0.17857142857143,0.89285714285714,0
0.00042627981317284,0.00081970996052016,731,83.5,0.21428571428571,0.89285714285714,0
0.00037918738805041,0.00081408178049683,732,83.5,0.25,0.89285714285714,0
0.00032983727594066,0.00081037758963885,733,83.5,0.28571428571429,0.89285714285714,0
0.0002788561696609,0.0008081128532902,734,83.5,0.32142857142857,0.89285714285714,0
0.00022690407474233,0.00080672201106305,735,83.5,0.35714285714286,0.89285714285714,0
0.00017444075484107,0.00080577284083996,736,83.5,0.39285714285714,0.89285714285714,0
0.00012170636573654,0.00080507959522376,737,83.5,0.42857142857143,0.89285714285714,0
6.8786058812483e-05,0.0008046145152918,738,83.5,0.46428571428571,0.89285714285714,0
1.5756885148012e-05,0.00080436534522476,739,83.5,0.5,0.89285714285714,0
-3.7347776576663e-05,0.00080428031473728,740,83.5,0.53571428571429,0.89285714285714,0
-9.0489415835923e-05,0.0008042947253376,741,83.5,0.57142857142857,0.89285714285714,0
-0.00014362040037227,0.0008044132612592,742,83.5,0.60714285714286,0.89285714285714,0
-0.00019653834591385,0.00080482256980058,743,83.5,0.64285714285714,0.89285714285714,0
-0.00024886588928696,0.00080591983145988,744,83.5,0.67857142857143,0.89285714285714,0
-0.00030003283276456,0.00080826780544531,745,83.5,0.71428571428571,0.89285714285714,0
-0.00034937232398539,0.00081249763307233,746,83.5,0.75,0.89285714285714,0
-0.00039616276533386,0.00081919904014815,747,83.5,0.78571428571429,0.89285714285714,0
-0.00043978279300718,0.00082869223510287,748,83.5,0.82142857142857,0.89285714285714,0
-0.00047984091551654,0.00084084746506825,749,83.5,0.85714285714286,0.89285714285714,0
-0.00051618966126202,0.00085510432737601,750,83.5,0.89285714285714,0.89285714285714,0
-0.00054880020270551,0.00087062877389421,751,83.5,0.92857142857143,0.89285714285714,0
-0.00057768217299929,0.00088646212486834,752,83.5,0.96428571428571,0.89285714285714,0
-0.00060286557911747,0.00090164334023343,753,83.5,1,0.89285714285714,0
0.00062567852068177,0.00091868377398029,754,83.5,0.035714285714286,0.92857142857143,0
0.00065106322024646,0.00093008967170146,755,83.5,0,0.92857142857143,0
0.00059537023809731,0.00090752496866322,756,83.5,0.071428571428571,0.92857142857143,0
0.00056027387378677,0.00089732686472568,757,83.5,0.10714285714286,0.92857142857143,0
0.00052077276492845,0.00088864137995771,758,83.5,0.14285714285714,0.92857142857143,0
0.00047746089230957,0.00088178033104629,759,83.5,0.17857142857143,0.92857142857143,0
0.00043103944904526,0.00087678463019565,760,83.5,0.21428571428571,0.92857142857143,0
0.00038222146458001,0.00087345954576326,761,83.5,0.25,0.92857142857143,0
0.00033169141668871,0.00087142424131809,762,83.5,0.28571428571429,0.92857142857143,0
0.00028008150273258,0.00087019505407621,763,83.5,0.32142857142857,0.92857142857143,0
0.00022784196632532,0.0008693713420157,764,83.5,0.35714285714286,0.92857142857143,0
0.00017522285613606,0.00086875011408677,765,83.5,0.39285714285714,0.92857142857143,0
0.0001223310049878,0.00086828318088571,766,83.5,0.42857142857143,0.92857142857143,0
6.9250872890523e-05,0.00086796970396603,767,83.5,0.46428571428571,0.92857142857143,0
1.6051688717504e-05,0.00086780254575374,768,83.5,0.5,0.92857142857143,0
-3.719402020831e-05,0.00086775494407224,769,83.5,0.53571428571429,0.92857142857143,0
-9.0454834829121e-05,0.00086778276190434,770,83.5,0.57142857142857,0.92857142857143,0
-0.00014370149723767,0.00086785553617737,771,83.5,0.60714285714286,0.92857142857143,0
-0.00019687449871387,0.00086802276642677,772,83.5,0.64285714285714,0.92857142857143,0
-0.00024977237709288,0.00086849579106759,773,83.5,0.67857142857143,0.92857142857143,0
-0.00030201711724653,0.000869659656232,774,83.5,0.71428571428571,0.92857142857143,0
-0.00035303081402792,0.00087201722350464,775,83.5,0.75,0.92857142857143,0
-0.00040207571540278,0.00087607541789598,776,83.5,0.78571428571429,0.92857142857143,0
-0.00044829895932269,0.00088220993836803,777,83.5,0.82142857142857,0.92857142857143,0
-0.00049087615239123,0.00089048176393041,778,83.5,0.85714285714286,0.92857142857143,0
-0.00052915967999969,0.00090054228395136,779,83.5,0.89285714285714,0.92857142857143,0
-0.00056275131699912,0.00091171189800698,780,83.5,0.92857142857143,0.92857142857143,0
-0.00059149583846831,0.00092315918874346,781,83.5,0.96428571428571,0.92857142857143,0
-0.00061548752069686,0.00093406268622558,782,83.5,1,0.92857142857143,0
0.00063448044796649,0.00095674150769038,783,83.5,0.035714285714286,0.96428571428571,0
0.00065977905077342,0.00096270168660264,784,83.5,0,0.96428571428571,0
0.00060356551505487,0.0009509346784354,785,83.5,0.071428571428571,0.96428571428571,0
0.0005672994523467,0.00094568236974087,786,83.5,0.10714285714286,0.96428571428571,0
0.00052629792009419,0.00094127471110381,787,83.5,0.14285714285714,0.96428571428571,0
0.00048141329417382,0.00093786589280165,788,83.5,0.17857142857143,0.96428571428571,0
0.00043359427818576,0.00093547368377298,789,83.5,0.21428571428571,0.96428571428571,0
0.00038374751016391,0.00093397156616963,790,83.5,0.25,0.96428571428571,0
0.00033263075505513,0.00093309308720127,791,83.5,0.28571428571429,0.96428571428571,0
0.00028075428280566,0.00093254942351691,792,83.5,0.32142857142857,0.96428571428571,0
0.00022839763129652,0.00093215526701473,793,83.5,0.35714285714286,0.96428571428571,0
0.00017568778510309,0.00093184563078773,794,83.5,0.39285714285714,0.96428571428571,0
0.00012271037546371,0.00093161211308913,795,83.5,0.42857142857143,0.96428571428571,0
6.9536860506144e-05,0.00093145508765852,796,83.5,0.46428571428571,0.96428571428571,0
1.6246806871219e-05,0.00093136935913184,797,83.5,0.5,0.96428571428571,0
-3.7097266698019e-05,0.00093134453036419,798,83.5,0.53571428571429,0.96428571428571,0
-9.0441055790878e-05,0.00093136351003041,799,83.5,0.57142857142857,0.96428571428571,0
-0.00014376074347224,0.00093140484965824,800,83.5,0.60714285714286,0.96428571428571,0
-0.00019702826649325,0.00093147084352647,801,83.5,0.64285714285714,0.96428571428571,0
-0.00025016809179108,0.00093163734740353,802,83.5,0.67857142857143,0.96428571428571,0
-0.0003029508204399,0.00093209354954298,803,83.5,0.71428571428571,0.96428571428571,0
-0.00035492147741489,0.00093311689993115,804,83.5,0.75,0.96428571428571,0
-0.00040535303448223,0.00093500448866884,805,83.5,0.78571428571429,0.96428571428571,0
-0.0004532832528098,0.00093798950843612,806,83.5,0.82142857142857,0.96428571428571,0
-0.00049761893249862,0.00094215762420557,807,83.5,0.85714285714286,0.96428571428571,0
-0.00053733688587767,0.00094736001411467,808,83.5,0.89285714285714,0.96428571428571,0
-0.00057169530733779,0.00095322010841677,809,83.5,0.92857142857143,0.96428571428571,0
-0.00060037428625225,0.00095924848936821,810,83.5,0.96428571428571,0.96428571428571,0
-0.00062350348404553,0.00096497013542091,811,83.5,1,0.96428571428571,0
0.00063750152874863,0.000995,812,83.5,0.035714285714286,1,0
0.00066277369490825,0.000995,813,83.5,0,1,0
0.00060636121833952,0.000995,814,83.5,0.071428571428571,1,0
0.00056967254519748,0.000995,815,83.5,0.10714285714286,1,0
0.00052813589380979,0.000995,816,83.5,0.14285714285714,1,0
0.0004826926813823,0.000995,817,83.5,0.17857142857143,1,0
0.00043438498212719,0.000995,818,83.5,0.21428571428571,1,0
0.00038420597388316,0.000995,819,83.5,0.25,1,0
0.00033291729918975,0.000995,820,83.5,0.28571428571429,1,0
0.00028097312671003,0.000995,821,83.5,0.32142857142857,1,0
0.00022858038998294,0.000995,822,83.5,0.35714285714286,1,0
0.0001758433304242,0.000995,823,83.5,0.39285714285714,1,0
0.00012283521093719,0.000995,824,83.5,0.42857142857143,1,0
6.9635612393075e-05,0.000995,825,83.5,0.46428571428571,1,0
1.6313753202417e-05,0.000995,826,83.5,0.5,1,0
-3.7061158416425e-05,0.000995,827,83.5,0.53571428571429,1,0
-9.0439325073123e-05,0.000995,828,83.5,0.57142857142857,1,0
-0.00014378275520521,0.000995,829,83.5,0.60714285714286,1,0
-0.00019707702901126,0.000995,830,83.5,0.64285714285714,1,0
-0.00025027655837389,0.000995,831,83.5,0.67857142857143,1,0
-0.00030321857273138,0.000995,832,83.5,0.71428571428571,1,0
-0.00035549537373536,0.000995,833,83.5,0.75,1,0
-0.00040639513769465,0.000995,834,83.5,0.78571428571429,1,0
-0.00045491640527897,0.000995,835,83.5,0.82142857142857,1,0
-0.00049988111097008,0.000995,836,83.5,0.85714285714286,1,0
-0.00054012854602097,0.000995,837,83.5,0.89285714285714,1,0
-0.00057478012462021,0.000995,838,83.5,0.92857142857143,1,0
-0.00060344259433264,0.000995,839,83.5,0.96428571428571,1,0
-0.00062625803740949,0.000995,840,83.5,1,1,0
