disp_x,disp_y,id,vonmises_stress_nodal,x,y,z
0,0,0,83.5,0,0,0
0,0,1,83.5,0.035714285714286,0,0
2.3680987484628e-05,2.238033125864e-05,2,83.5,0.035714285714286,0.035714285714286,0
6.5685510787353e-05,4.9680153665187e-05,3,83.5,0,0.035714285714286,0
0,0,4,81.709698019081,0.071428571428571,0,0
1.2839207884461e-05,1.6184486053112e-05,5,82.60484900954,0.071428571428571,0.035714285714286,0
0,0,6,76.214927209677,0.10714285714286,0,0
1.0403406852505e-05,1.4540070283894e-05,7,79.446012324207,0.10714285714286,0.035714285714286,0
0,0,8,70.19245955563,0.14285714285714,0,0
8.9212813402715e-06,1.4102586933906e-05,9,74.154702100828,0.14285714285714,0.035714285714286,0
0,0,10,65.846741704723,0.17857142857143,0,0
7.5450497699562e-06,1.3523528374375e-05,11,69.052618866923,0.17857142857143,0.035714285714286,0
0,0,12,62.221982851709,0.21428571428571,0,0
6.3919837219295e-06,1.3095816110305e-05,13,65.197719938504,0.21428571428571,0.035714285714286,0
0,0,14,59.321702913859,0.25,0,0
5.3697601904102e-06,1.2730928092215e-05,15,62.00683612354,0.25,0.035714285714286,0
0,0,16,56.951087930994,0.28571428571429,0,0
4.4409788238122e-06,1.2432236698286e-05,17,59.443443355311,0.28571428571429,0.035714285714286,0
0,0,18,55.006047454989,0.32142857142857,0,0
3.5785505215832e-06,1.2178520334482e-05,19,57.351742477651,0.32142857142857,0.035714285714286,0
0,0,20,53.406038125132,0.35714285714286,0,0
2.7596425659344e-06,1.1961405791956e-05,21,55.647852375182,0.35714285714286,0.035714285714286,0
0,0,22,52.091738846252,0.39285714285714,0,0
1.9691098435393e-06,1.1770292774885e-05,23,54.262564378431,0.39285714285714,0.035714285714286,0
0,0,24,51.015908574017,0.42857142857143,0,0
1.194038975794e-06,1.1596921758393e-05,25,53.140094004279,0.42857142857143,0.035714285714286,0
0,0,26,50.130118983459,0.46428571428571,0,0
4.2778886658923e-07,1.1432306262958e-05,27,52.2235933801,0.46428571428571,0.035714285714286,0
0,0,28,49.376104427792,0.5,0,0
-3.281343518325e-07,1.1263303353182e-05,29,51.436044283564,0.5,0.035714285714286,0
0,0,30,48.665802146888,0.53571428571429,0,0
-1.049566322482e-06,1.1084398021281e-05,31,50.686910820555,0.53571428571429,0.035714285714286,0
0,0,32,47.94987120475,0.57142857142857,0,0
-1.6820464412018e-06,1.0873539645746e-05,33,49.859762440524,0.57142857142857,0.035714285714286,0
0,0,34,47.665605613737,0.60714285714286,0,0
-2.097652436691e-06,1.0753187935355e-05,35,49.154397117405,0.60714285714286,0.035714285714286,0
0,0,36,48.743979600515,0.64285714285714,0,0
-2.3840089371822e-06,1.095663308092e-05,37,49.898101605235,0.64285714285714,0.035714285714286,0
0,0,38,51.767403323228,0.67857142857143,0,0
-2.782695296055e-06,1.1603380834728e-05,39,53.479576018525,0.67857142857143,0.035714285714286,0
0,0,40,56.131347450829,0.71428571428571,0,0
-3.6072944265505e-06,1.247605480403e-05,41,59.047972100126,0.71428571428571,0.035714285714286,0
0,0,42,60.573332137906,0.75,0,0
-4.8196449762455e-06,1.3200739206935e-05,43,64.164601541466,0.75,0.035714285714286,0
0,0,44,64.361724674514,0.78571428571429,0,0
-6.238730834487e-06,1.3654746218294e-05,45,67.897691624303,0.78571428571429,0.035714285714286,0
0,0,46,67.553703600156,0.82142857142857,0,0
-7.6833252955589e-06,1.3846743123135e-05,47,71.058129269657,0.82142857142857,0.035714285714286,0
0,0,48,70.899848205375,0.85714285714286,0,0
-9.0766097362849e-06,1.4124701281005e-05,49,74.870266778526,0.85714285714286,0.035714285714286,0
0,0,50,76.23784002506,0.89285714285714,0,0
-1.0505930787622e-05,1.4533139467005e-05,51,79.368973967259,0.89285714285714,0.035714285714286,0
0,0,52,81.614913339594,0.92857142857143,0,0
-1.2789988824375e-05,1.6120819699397e-05,53,82.557456669797,0.92857142857143,0.035714285714286,0
0,0,54,83.5,0.96428571428571,0,0
-2.2214050408556e-05,2.1116574631884e-05,55,83.5,0.96428571428571,0.035714285714286,0
0,0,56,83.5,1,0,0
-5.6557271915581e-05,4.3335335904189e-05,57,83.5,1,0.035714285714286,0
6.3740536626918e-05,6.3905243694989e-05,58,83.5,0.035714285714286,0.071428571428571,0
8.5679379292912e-05,9.1784006588813e-05,59,83.5,0,0.071428571428571,0
3.5651905487453e-05,4.0057754807914e-05,60,83.5,0.071428571428571,0.071428571428571,0
2.288151057753e-05,3.16293072694e-05,61,83.088548719368,0.10714285714286,0.071428571428571,0
1.844120560401e-05,2.9003544931782e-05,62,80.568131312022,0.14285714285714,0.071428571428571,0
1.5840468268856e-05,2.7985867645533e-05,63,75.665573045462,0.17857142857143,0.071428571428571,0
1.3419658649846e-05,2.6949872981053e-05,64,70.960336718001,0.21428571428571,0.071428571428571,0
1.1309288925669e-05,2.6163452994254e-05,65,67.403967960238,0.25,0.071428571428571,0
9.3934066377913e-06,2.5503646998957e-05,66,64.455451675041,0.28571428571429,0.071428571428571,0
7.6196664631297e-06,2.495950836258e-05,67,62.092106279244,0.32142857142857,0.071428571428571,0
5.9481525594467e-06,2.4497218818449e-05,68,60.180392985509,0.35714285714286,0.071428571428571,0
4.3440157448666e-06,2.4098597213977e-05,69,58.649185565978,0.39285714285714,0.071428571428571,0
2.7826891613458e-06,2.3743661008616e-05,70,57.434705563946,0.42857142857143,0.071428571428571,0
1.2432998703542e-06,2.3411427074955e-05,71,56.476746831041,0.46428571428571,0.071428571428571,0
-2.8393599924621e-07,2.3078131074386e-05,72,55.710214360969,0.5,0.071428571428571,0
-1.7959271306136e-06,2.2702553393912e-05,73,55.056644574563,0.53571428571429,0.071428571428571,0
-3.2603493883756e-06,2.2288925884452e-05,74,54.437800124269,0.57142857142857,0.071428571428571,0
-4.6272776815348e-06,2.1822714034553e-05,75,53.412462192019,0.60714285714286,0.071428571428571,0
-5.5798108834988e-06,2.2024173217797e-05,76,53.172992223085,0.64285714285714,0.071428571428571,0
-6.6327975901222e-06,2.3565700765257e-05,77,57.551555722274,0.67857142857143,0.071428571428571,0
-8.3365692041004e-06,2.5817808824345e-05,78,64.946562445201,0.71428571428571,0.071428571428571,0
-1.075972842355e-05,2.7448727769319e-05,79,70.217940841943,0.75,0.071428571428571,0
-1.317387568834e-05,2.8139198287753e-05,80,73.619946003603,0.78571428571429,0.071428571428571,0
-1.5685339788955e-05,2.8774773424486e-05,81,77.461873071903,0.82142857142857,0.071428571428571,0
-1.8541886406504e-05,2.9028344226398e-05,82,81.090125347116,0.85714285714286,0.071428571428571,0
-2.261057312694e-05,3.1138728059348e-05,83,83.000053954729,0.89285714285714,0.071428571428571,0
-3.3059601589287e-05,3.8083990025765e-05,84,83.5,0.92857142857143,0.071428571428571,0
-5.4764378451781e-05,5.6658030623173e-05,85,83.5,0.96428571428571,0.071428571428571,0
-7.2181711894174e-05,7.8908924418818e-05,86,83.5,1,0.071428571428571,0
8.7768754766017e-05,9.9032486929052e-05,87,83.5,0.035714285714286,0.10714285714286,0
0.00010980399853573,0.00012048828060166,88,83.5,0,0.10714285714286,0
6.5282912493634e-05,7.5487712488128e-05,89,83.5,0.071428571428571,0.10714285714286,0
4.2525966829712e-05,5.5614667578978e-05,90,83.5,0.10714285714286,0.10714285714286,0
2.9827384647387e-05,4.6358306461068e-05,91,83.259658989009,0.14285714285714,0.10714285714286,0
2.4326468287852e-05,4.3074876500241e-05,92,81.11226171666,0.17857142857143,0.10714285714286,0
2.0866639853958e-05,4.1634134200823e-05,93,76.724369454248,0.21428571428571,0.10714285714286,0
1.7623466392601e-05,4.0279958573334e-05,94,72.567608298589,0.25,0.10714285714286,0
1.4712762708203e-05,3.9226992129968e-05,95,69.435959741795,0.28571428571429,0.10714285714286,0
1.2019940769551e-05,3.8344543338275e-05,96,66.818913128914,0.32142857142857,0.10714285714286,0
9.4878867062159e-06,3.7609285350235e-05,97,64.720191870107,0.35714285714286,0.10714285714286,0
7.0728004641726e-06,3.6981279772039e-05,98,63.042572917213,0.39285714285714,0.10714285714286,0
4.7309619325949e-06,3.6434258506585e-05,99,61.737706594259,0.42857142857143,0.10714285714286,0
2.4292196029805e-06,3.5937540796776e-05,100,60.766842852755,0.46428571428571,0.10714285714286,0
1.327667882144e-07,3.5452866024749e-05,101,60.108468391059,0.5,0.10714285714286,0
-2.1921778674211e-06,3.4944717848763e-05,102,59.762665639766,0.53571428571429,0.10714285714286,0
-4.5835143991024e-06,3.4344600841578e-05,103,59.675995730337,0.57142857142857,0.10714285714286,0
-7.0710724773193e-06,3.3769997965527e-05,104,59.471141890278,0.60714285714286,0.10714285714286,0
-9.6158503673734e-06,3.3096485362971e-05,105,56.66997594996,0.64285714285714,0.10714285714286,0
-1.1872845879167e-05,3.5966753285622e-05,106,63.967027579777,0.67857142857143,0.10714285714286,0
-1.4922996906836e-05,4.0361380468013e-05,107,75.05974889091,0.71428571428571,0.10714285714286,0
-1.740874643465e-05,4.2158937865216e-05,108,77.273062112614,0.75,0.10714285714286,0
-2.0177818231398e-05,4.3380376905161e-05,109,79.400833455928,0.78571428571429,0.10714285714286,0
-2.3625912496317e-05,4.4219173051536e-05,110,81.930595602324,0.82142857142857,0.10714285714286,0
-2.9013490103243e-05,4.6828060691709e-05,111,83.419782671278,0.85714285714286,0.10714285714286,0
-3.9826427755653e-05,5.2154219132719e-05,112,83.5,0.89285714285714,0.10714285714286,0
-5.5761685220719e-05,6.7240203478551e-05,113,83.5,0.92857142857143,0.10714285714286,0
-7.3517193947618e-05,8.6534290979886e-05,114,83.5,0.96428571428571,0.10714285714286,0
-9.1959821481426e-05,0.00010435287744482,115,83.5,1,0.10714285714286,0
0.00010987566219121,0.00013015806925504,116,83.5,0.035714285714286,0.14285714285714,0
0.00013117054813013,0.00015232353195116,117,83.5,0,0.14285714285714,0
8.8033630443459e-05,0.00010859424452937,118,83.5,0.071428571428571,0.14285714285714,0
6.639466235856e-05,8.7136587944539e-05,119,83.5,0.10714285714286,0.14285714285714,0
4.6668679056115e-05,6.9702243461851e-05,120,83.5,0.14285714285714,0.14285714285714,0
3.4398361806015e-05,6.0425912839076e-05,121,83.325936685759,0.17857142857143,0.14285714285714,0
2.8267173503933e-05,5.6819682936951e-05,122,81.466710344953,0.21428571428571,0.14285714285714,0
2.4143587206583e-05,5.5110042637963e-05,123,77.643562676984,0.25,0.14285714285714,0
2.0239039972336e-05,5.3556442930214e-05,124,74.06537258797,0.28571428571429,0.14285714285714,0
1.6652583821918e-05,5.231845361303e-05,125,71.36403993269,0.32142857142857,0.14285714285714,0
1.3287423805623e-05,5.1274966629187e-05,126,69.091372476621,0.35714285714286,0.14285714285714,0
1.0080988391456e-05,5.0398501937477e-05,127,67.282019945848,0.39285714285714,0.14285714285714,0
6.9903958243436e-06,4.9646074981989e-05,128,65.882495570298,0.42857142857143,0.14285714285714,0
3.9605060173835e-06,4.8985290975321e-05,129,64.874232028786,0.46428571428571,0.14285714285714,0
9.4398802912239e-07,4.837608394678e-05,130,64.263673009826,0.5,0.14285714285714,0
-2.1190904718435e-06,4.7766525252877e-05,131,64.074712810432,0.53571428571429,0.14285714285714,0
-5.3119380590683e-06,4.7132419124414e-05,132,64.243599567885,0.57142857142857,0.14285714285714,0
-8.7076181963325e-06,4.6344251517285e-05,133,64.390168312993,0.60714285714286,0.14285714285714,0
-1.2510912359708e-05,4.571601474518e-05,134,59.95236417698,0.64285714285714,0.14285714285714,0
-1.5473514781923e-05,4.440491251275e-05,135,69.421060157649,0.67857142857143,0.14285714285714,0
-1.9261741236488e-05,4.564540474154e-05,136,82.84548482042,0.71428571428571,0.14285714285714,0
-2.1512934697525e-05,4.8116108648209e-05,137,82.683056743184,0.75,0.14285714285714,0
-2.4840507290945e-05,5.0376041799796e-05,138,83.247716739372,0.78571428571429,0.14285714285714,0
-3.0918419407968e-05,5.3935672565958e-05,139,83.5,0.82142857142857,0.14285714285714,0
-4.2117773388895e-05,6.0866147437666e-05,140,83.5,0.85714285714286,0.14285714285714,0
-6.0348461230107e-05,7.3961753172361e-05,141,83.5,0.89285714285714,0.14285714285714,0
-7.4650643575566e-05,9.4634030829598e-05,142,83.5,0.92857142857143,0.14285714285714,0
-9.2024134424245e-05,0.00011375303593884,143,83.5,0.96428571428571,0.14285714285714,0
-0.0001106458319131,0.00013357971726524,144,83.5,1,0.14285714285714,0
0.00013140698673996,0.00016187532808938,145,83.5,0.035714285714286,0.17857142857143,0
0.00015373532473446,0.00018402115931734,146,83.5,0,0.17857142857143,0
0.00010965890310498,0.00014010896500771,147,83.5,0.071428571428571,0.17857142857143,0
8.7934374439396e-05,0.00011885686203968,148,83.5,0.10714285714286,0.17857142857143,0
6.7061973746571e-05,9.8860294053571e-05,149,83.5,0.14285714285714,0.17857142857143,0
4.9044729848386e-05,8.3116462036891e-05,150,83.5,0.17857142857143,0.17857142857143,0
3.7107408619371e-05,7.4123792080014e-05,151,83.365949096056,0.21428571428571,0.17857142857143,0
3.0495952795425e-05,7.0352892777415e-05,152,81.806286439333,0.25,0.17857142857143,0
2.5836600672452e-05,6.849229578005e-05,153,78.560993176654,0.28571428571429,0.17857142857143,0
2.1394079907737e-05,6.6822078985511e-05,154,75.493042460889,0.32142857142857,0.17857142857143,0
1.7233179666881e-05,6.5461469375781e-05,155,73.170991455603,0.35714285714286,0.17857142857143,0
1.3290921420704e-05,6.4308968383882e-05,156,71.238860429902,0.39285714285714,0.17857142857143,0
9.4895371090902e-06,6.3341081342974e-05,157,69.728258421615,0.42857142857143,0.17857142857143,0
5.7921419503309e-06,6.2507994434684e-05,158,68.618425320363,0.46428571428571,0.17857142857143,0
2.135957065009e-06,6.1774832723396e-05,159,67.900894263857,0.5,0.17857142857143,0
-1.5363018627192e-06,6.1094420676222e-05,160,67.54832916877,0.53571428571429,0.17857142857143,0
-5.27564097621e-06,6.0390054096977e-05,161,67.441977593835,0.57142857142857,0.17857142857143,0
-9.1683950005736e-06,5.9599700516012e-05,162,66.787404198737,0.60714285714286,0.17857142857143,0
-1.297370014628e-05,5.8284555163443e-05,163,63.931398163509,0.64285714285714,0.17857142857143,0
-1.6289771301785e-05,5.4543445493592e-05,164,72.608114153136,0.67857142857143,0.17857142857143,0
-2.2632921892683e-05,5.2810198230091e-05,165,83.5,0.71428571428571,0.17857142857143,0
-2.7247059617278e-05,5.4783247400305e-05,166,83.5,0.75,0.17857142857143,0
-3.3105652223058e-05,5.9873947861825e-05,167,83.5,0.78571428571429,0.17857142857143,0
-4.3708742043354e-05,6.8019383944966e-05,168,83.5,0.82142857142857,0.17857142857143,0
-6.0270342353599e-05,8.1083161506074e-05,169,83.5,0.85714285714286,0.17857142857143,0
-8.0424168129627e-05,9.8116847169474e-05,170,83.5,0.89285714285714,0.17857142857143,0
-9.5897395876694e-05,0.00011952610010405,171,83.5,0.92857142857143,0.17857142857143,0
-0.00011229003892378,0.00014162392953204,172,83.5,0.96428571428571,0.17857142857143,0
-0.00013152035309295,0.0001631497710612,173,83.5,1,0.17857142857143,0
0.00015359835945323,0.00019407123312351,174,83.5,0.035714285714286,0.21428571428571,0
0.00017661783247289,0.00021699948582727,175,83.5,0,0.21428571428571,0
0.0001310910568619,0.00017196852743976,176,83.5,0.071428571428571,0.21428571428571,0
0.00010907572103426,0.0001504300039824,177,83.5,0.10714285714286,0.21428571428571,0
8.7429183508532e-05,0.00012967398819279,178,83.5,0.14285714285714,0.21428571428571,0
6.712955177695e-05,0.00011085104380712,179,83.5,0.17857142857143,0.21428571428571,0
5.0096900450414e-05,9.6347439567947e-05,180,83.5,0.21428571428571,0.21428571428571,0
3.8310280149328e-05,8.7694217039724e-05,181,83.422348767311,0.25,0.21428571428571,0
3.1236039074398e-05,8.3786292261472e-05,182,82.192632473787,0.28571428571429,0.21428571428571,0
2.6117178450105e-05,8.1836339132526e-05,183,79.488421256106,0.32142857142857,0.21428571428571,0
2.1244779631483e-05,8.0099340895658e-05,184,76.827899874561,0.35714285714286,0.21428571428571,0
1.659253140983e-05,7.867360584009e-05,185,74.833543608316,0.39285714285714,0.21428571428571,0
1.2155028835277e-05,7.7462153892842e-05,186,73.229752347472,0.42857142857143,0.21428571428571,0
7.8396894617729e-06,7.64492845129e-05,187,71.960547114709,0.46428571428571,0.21428571428571,0
3.6223711465227e-06,7.557279012391e-05,188,71.010966893936,0.5,0.21428571428571,0
-5.3966747213865e-07,7.4788574592265e-05,189,70.333460093999,0.53571428571429,0.21428571428571,0
-4.679857391195e-06,7.4003552611203e-05,190,69.697077621671,0.57142857142857,0.21428571428571,0
-8.7166065890047e-06,7.3021393713148e-05,191,68.740265520826,0.60714285714286,0.21428571428571,0
-1.2571208349334e-05,7.1233428108668e-05,192,68.682184731155,0.64285714285714,0.21428571428571,0
-1.6332123948475e-05,6.7023542156282e-05,193,76.361927581316,0.67857142857143,0.21428571428571,0
-2.5767659892511e-05,6.3403610045209e-05,194,83.5,0.71428571428571,0.21428571428571,0
-3.4853573653449e-05,6.5057543676882e-05,195,83.5,0.75,0.21428571428571,0
-4.5744779531484e-05,7.310990591104e-05,196,83.5,0.78571428571429,0.21428571428571,0
-6.0561143183751e-05,8.6581525798937e-05,197,83.5,0.82142857142857,0.21428571428571,0
-7.9262674516556e-05,0.00010375178923239,198,83.5,0.85714285714286,0.21428571428571,0
-0.00010119839489827,0.00012339273351608,199,83.5,0.89285714285714,0.21428571428571,0
-0.00011785968507181,0.00014556859851145,200,83.5,0.92857142857143,0.21428571428571,0
-0.00013551667939691,0.00016903459691674,201,83.5,0.96428571428571,0.21428571428571,0
-0.00015467903975116,0.00019363212577536,202,83.5,1,0.21428571428571,0
0.00017636367061924,0.00022719644384531,203,83.5,0.035714285714286,0.25,0
0.00020015900463629,0.00025058348082165,204,83.5,0,0.25,0
0.00015308407547029,0.00020446243275535,205,83.5,0.071428571428571,0.25,0
0.00013032486719917,0.00018251629031742,206,83.5,0.10714285714286,0.25,0
0.00010803937382567,0.00016125253288298,207,83.5,0.14285714285714,0.25,0
8.6420656039409e-05,0.00014106278387851,208,83.5,0.17857142857143,0.25,0
6.6516945872849e-05,0.00012321673108735,209,83.5,0.21428571428571,0.25,0
5.0066167312797e-05,0.00010966061273142,210,83.5,0.25,0.25,0
3.8271706806407e-05,0.00010129927680204,211,83.498604428535,0.28571428571429,0.25,0
3.07156384312e-05,9.7189467483924e-05,212,82.53389312808,0.32142857142857,0.25,0
2.5157973596492e-05,9.5157864215677e-05,213,80.344394176091,0.35714285714286,0.25,0
1.9947639566169e-05,9.3413852083404e-05,214,78.125648796007,0.39285714285714,0.25,0
1.487219778039e-05,9.1978183231487e-05,215,76.414435540684,0.42857142857143,0.25,0
1.0002073376374e-05,9.0749332339055e-05,216,75.024747447184,0.46428571428571,0.25,0
5.2658408604758e-06,8.9710455628184e-05,217,73.807121250963,0.5,0.25,0
6.4819993525095e-07,8.8786876720084e-05,218,72.869639418704,0.53571428571429,0.25,0
-3.8533452300022e-06,8.7889433182812e-05,219,72.229184414599,0.57142857142857,0.25,0
-8.24687500485e-06,8.6719341027514e-05,220,71.950821072012,0.60714285714286,0.25,0
-1.2485432291286e-05,8.4916655630556e-05,221,74.593999232562,0.64285714285714,0.25,0
-1.7031760181758e-05,8.1653986471145e-05,222,80.382989181446,0.67857142857143,0.25,0
-2.9793616277712e-05,7.811750907926e-05,223,83.5,0.71428571428571,0.25,0
-4.4488905065825e-05,8.080751110552e-05,224,83.5,0.75,0.25,0
-6.0761477411439e-05,9.0880118964324e-05,225,83.5,0.78571428571429,0.25,0
-7.8882005782706e-05,0.00010774560737948,226,83.5,0.82142857142857,0.25,0
-9.9679793646857e-05,0.00012792399054192,227,83.5,0.85714285714286,0.25,0
-0.00012281523898589,0.00015008101335632,228,83.5,0.89285714285714,0.25,0
-0.00014103962266753,0.00017315203165879,229,83.5,0.92857142857143,0.25,0
-0.00016022730566574,0.00019782992216087,230,83.5,0.96428571428571,0.25,0
-0.00018107390945988,0.00022445589991369,231,83.5,1,0.25,0
0.00019967760352723,0.00026103558509264,232,83.5,0.035714285714286,0.28571428571429,0
0.00022409065176665,0.00028488043548811,233,83.5,0,0.28571428571429,0
0.00017564801611748,0.00023784411244162,234,83.5,0.071428571428571,0.28571428571429,0
0.00015207012699936,0.00021531393855879,235,83.5,0.10714285714286,0.28571428571429,0
0.00012903557422632,0.00019360085841855,236,83.5,0.14285714285714,0.28571428571429,0
0.00010647467829869,0.00017265579389748,237,83.5,0.17857142857143,0.28571428571429,0
8.4846857083175e-05,0.0001530344184289,238,83.5,0.21428571428571,0.28571428571429,0
6.5196831273567e-05,0.00013599135332344,239,83.5,0.25,0.28571428571429,0
4.9133057002881e-05,0.00012316144652382,240,83.5,0.28571428571429,0.28571428571429,0
3.7234538624093e-05,0.00011501035653771,241,83.5,0.32142857142857,0.28571428571429,0
2.9159021884735e-05,0.00011060669511963,242,82.830745477725,0.35714285714286,0.28571428571429,0
2.3145323817922e-05,0.00010848927309451,243,81.38845624154,0.39285714285714,0.28571428571429,0
1.7612077588572e-05,0.00010683259711169,244,79.615462423771,0.42857142857143,0.28571428571429,0
1.2150293535088e-05,0.0001054019398418,245,77.888141407554,0.46428571428571,0.28571428571429,0
6.9067592763156e-06,0.00010414390886204,246,76.524295189402,0.5,0.28571428571429,0
1.8450897852034e-06,0.00010308125671434,247,75.546878925914,0.53571428571429,0.28571428571429,0
-3.1307393515269e-06,0.00010209546954163,248,75.331681381184,0.57142857142857,0.28571428571429,0
-8.1056523695402e-06,0.00010104170968088,249,76.822622271028,0.60714285714286,0.28571428571429,0
-1.3164958503413e-05,9.9299041749866e-05,250,80.313376183985,0.64285714285714,0.28571428571429,0
-1.9408422135796e-05,9.852963206369e-05,251,82.969461810031,0.67857142857143,0.28571428571429,0
-3.613474351466e-05,9.7230847038118e-05,252,83.5,0.71428571428571,0.28571428571429,0
-5.5048262837799e-05,0.00010160315118385,253,83.5,0.75,0.28571428571429,0
-7.6228614129268e-05,0.00011352936634395,254,83.5,0.78571428571429,0.28571428571429,0
-9.8320846967973e-05,0.00013119046914112,255,83.5,0.82142857142857,0.28571428571429,0
-0.00012089870481266,0.0001536828746169,256,83.5,0.85714285714286,0.28571428571429,0
-0.00014579170801824,0.00017813859941023,257,83.5,0.89285714285714,0.28571428571429,0
-0.00016523276969504,0.00020231086249689,258,83.5,0.92857142857143,0.28571428571429,0
-0.00018662243504242,0.0002288175460312,259,83.5,0.96428571428571,0.28571428571429,0
-0.00020884930585093,0.00025633454280222,260,83.5,1,0.28571428571429,0
0.00022338917451271,0.00029557250214611,261,83.5,0.035714285714286,0.32142857142857,0
0.00024830663723469,0.00031964032811485,262,83.5,0,0.32142857142857,0
0.00019870287104494,0.00027195811808713,263,83.5,0.071428571428571,0.32142857142857,0
0.00017439946067851,0.0002490146554244,264,83.5,0.10714285714286,0.32142857142857,0
0.00015048116294072,0.00022669836069295,265,83.5,0.14285714285714,0.32142857142857,0
0.00012718185216321,0.00020528201586881,266,83.5,0.17857142857143,0.32142857142857,0
0.0001043380138248,0.00018466208538539,267,83.5,0.21428571428571,0.32142857142857,0
8.271054217441e-05,0.000165542582862,268,83.5,0.25,0.32142857142857,0
6.3241779851906e-05,0.00014908908860658,269,83.5,0.28571428571429,0.32142857142857,0
4.7564663002845e-05,0.00013679991921167,270,83.5,0.32142857142857,0.32142857142857,0
3.550904947395e-05,0.00012883988767293,271,83.5,0.35714285714286,0.32142857142857,0
2.6715548432955e-05,0.00012419558050531,272,83.279428263255,0.39285714285714,0.32142857142857,0
2.0089069170603e-05,0.00012200370282155,273,82.384654373201,0.42857142857143,0.32142857142857,0
1.421943490061e-05,0.00012035233606418,274,80.863028031932,0.46428571428571,0.32142857142857,0
8.4814639189223e-06,0.00011889481968303,275,79.232589815797,0.5,0.32142857142857,0
2.8760217249123e-06,0.00011764504219202,276,78.363340475944,0.53571428571429,0.32142857142857,0
-2.595385089495e-06,0.00011674181997254,277,79.183189679465,0.57142857142857,0.32142857142857,0
-8.1325036172018e-06,0.00011581172125645,278,81.444069261529,0.60714285714286,0.32142857142857,0
-1.4771808559761e-05,0.00011561343530657,279,83.149432164197,0.64285714285714,0.32142857142857,0
-2.5040492593798e-05,0.0001180178437189,280,83.5,0.67857142857143,0.32142857142857,0
-4.3550930745477e-05,0.00011925886742252,281,83.5,0.71428571428571,0.32142857142857,0
-6.6435138678465e-05,0.00012731420843444,282,83.5,0.75,0.32142857142857,0
-9.1763504120649e-05,0.00014022437552472,283,83.5,0.78571428571429,0.32142857142857,0
-0.00011782146830238,0.00015847262230886,284,83.5,0.82142857142857,0.32142857142857,0
-0.00014368309656838,0.00018065111485624,285,83.5,0.85714285714286,0.32142857142857,0
-0.00016928076887669,0.00020753211370084,286,83.5,0.89285714285714,0.32142857142857,0
-0.00019146049210313,0.00023396093330468,287,83.5,0.92857142857143,0.32142857142857,0
-0.00021411409807413,0.00026104363957187,288,83.5,0.96428571428571,0.32142857142857,0
-0.00023707263146999,0.00028913372462815,289,83.5,1,0.32142857142857,0
0.00024733856032849,0.00033059285343381,290,83.5,0.035714285714286,0.35714285714286,0
0.00027274701037002,0.00035492870350583,291,83.5,0,0.35714285714286,0
0.00022215741400834,0.00030679833103971,292,83.5,0.071428571428571,0.35714285714286,0
0.00019715244051887,0.00028342022900989,293,83.5,0.10714285714286,0.35714285714286,0
0.00017255970345093,0.00026077271895825,294,83.5,0.14285714285714,0.35714285714286,0
0.00014826385091986,0.00023864134634359,295,83.5,0.17857142857143,0.35714285714286,0
0.00012479829022792,0.00021754586484659,296,83.5,0.21428571428571,0.35714285714286,0
0.00010173295867675,0.00019713990039039,297,83.5,0.25,0.35714285714286,0
8.0277289444406e-05,0.00017834563729062,298,83.5,0.28571428571429,0.35714285714286,0
6.096340414215e-05,0.00016228065407672,299,83.5,0.32142857142857,0.35714285714286,0
4.5492385578669e-05,0.00015079264088758,300,83.5,0.35714285714286,0.35714285714286,0
3.2836938770856e-05,0.00014334562589192,301,83.5,0.39285714285714,0.35714285714286,0
2.3335479247163e-05,0.00013807284658716,302,83.484778741542,0.42857142857143,0.35714285714286,0
1.6204233509238e-05,0.00013571678692171,303,82.981910158517,0.46428571428571,0.35714285714286,0
9.8846940680252e-06,0.00013386508980783,304,82.037916337212,0.5,0.35714285714286,0
3.9315573772227e-06,0.00013250663359995,305,81.636288045387,0.53571428571429,0.35714285714286,0
-2.3018366806784e-06,0.00013171527925363,306,82.455015561376,0.57142857142857,0.35714285714286,0
-9.3654849115623e-06,0.00013209539376304,307,83.359512436226,0.60714285714286,0.35714285714286,0
-1.9486099808968e-05,0.00013542920593684,308,83.5,0.64285714285714,0.35714285714286,0
-3.3580802045389e-05,0.00014257479581314,309,83.5,0.67857142857143,0.35714285714286,0
-5.3138767404876e-05,0.00015247236417072,310,83.5,0.71428571428571,0.35714285714286,0
-7.9041171568989e-05,0.00016326590270913,311,83.5,0.75,0.35714285714286,0
-0.00010756931725041,0.00017822266153103,312,83.5,0.78571428571429,0.35714285714286,0
-0.0001370906128307,0.00019625599423309,313,83.5,0.82142857142857,0.35714285714286,0
-0.0001665364041808,0.00021843944002835,314,83.5,0.85714285714286,0.35714285714286,0
-0.00019316935447137,0.00024186877865226,315,83.5,0.89285714285714,0.35714285714286,0
-0.00021824862629269,0.00026696671256811,316,83.5,0.92857142857143,0.35714285714286,0
-0.00024197259463949,0.00029423493021957,317,83.5,0.96428571428571,0.35714285714286,0
-0.00026549322309698,0.00032229908438261,318,83.5,1,0.35714285714286,0
0.00027149849145481,0.00036617153823406,319,83.5,0.035714285714286,0.39285714285714,0
0.00029740818592765,0.00039068324847208,320,83.5,0,0.39285714285714,0
0.00024579497531242,0.00034209228177782,321,83.5,0.071428571428571,0.39285714285714,0
0.00022032866679218,0.00031862780449222,322,83.5,0.10714285714286,0.39285714285714,0
0.00019496504443302,0.00029545170968937,323,83.5,0.14285714285714,0.39285714285714,0
0.00017015505444145,0.0002731055567804,324,83.5,0.17857142857143,0.39285714285714,0
0.00014554776628055,0.00025096031806889,325,83.5,0.21428571428571,0.39285714285714,0
0.0001222892009978,0.00023008311066664,326,83.5,0.25,0.39285714285714,0
9.9169842229959e-05,0.00020967166336254,327,83.5,0.28571428571429,0.39285714285714,0
7.7674985548096e-05,0.00019164235863446,328,83.5,0.32142857142857,0.39285714285714,0
5.7308638501536e-05,0.00017668647524553,329,83.5,0.35714285714286,0.39285714285714,0
4.2357955345794e-05,0.00016517864081821,330,83.5,0.39285714285714,0.39285714285714,0
2.9469725381908e-05,0.00015824050139614,331,83.5,0.42857142857143,0.39285714285714,0
1.9194978272093e-05,0.0001519227644327,332,83.5,0.46428571428571,0.39285714285714,0
1.2143493965622e-05,0.00014944355751946,333,83.5,0.5,0.39285714285714,0
4.3794627529352e-06,0.0001480180601726,334,83.5,0.53571428571429,0.39285714285714,0
-3.5563342716834e-06,0.00014845534401594,335,83.5,0.57142857142857,0.39285714285714,0
-1.4200444525338e-05,0.00015200151706458,336,83.5,0.60714285714286,0.39285714285714,0
-2.793078634872e-05,0.0001591753642478,337,83.5,0.64285714285714,0.39285714285714,0
-4.6223300892279e-05,0.00017093365988143,338,83.5,0.67857142857143,0.39285714285714,0
-6.8170431251927e-05,0.00018566535651685,339,83.5,0.71428571428571,0.39285714285714,0
-9.4324538637044e-05,0.00020190381489889,340,83.5,0.75,0.39285714285714,0
-0.00012436738535785,0.00021839771275372,341,83.5,0.78571428571429,0.39285714285714,0
-0.0001559421606377,0.00023739963013394,342,83.5,0.82142857142857,0.39285714285714,0
-0.00018649057180767,0.00025743207710519,343,83.5,0.85714285714286,0.39285714285714,0
-0.00021575172268608,0.00027897065163835,344,83.5,0.89285714285714,0.39285714285714,0
-0.00024334204182201,0.00030261311985344,345,83.5,0.92857142857143,0.39285714285714,0
-0.00026939190869604,0.00032839883314259,346,83.5,0.96428571428571,0.39285714285714,0
-0.00029395969223225,0.00035611122087084,347,83.5,1,0.39285714285714,0
0.00029586022142734,0.0004022315502534,348,83.5,0.035714285714286,0.42857142857143,0
0.00032228503741612,0.00042699050778409,349,83.5,0,0.42857142857143,0
0.0002696256731721,0.0003780110578474,350,83.5,0.071428571428571,0.42857142857143,0
0.00024361018393905,0.00035417913203125,351,83.5,0.10714285714286,0.42857142857143,0
0.00021792302858342,0.00033104612103002,352,83.5,0.14285714285714,0.42857142857143,0
0.00019230863493159,0.00030783388067696,353,83.5,0.17857142857143,0.42857142857143,0
0.00016766156227591,0.00028562851889925,354,83.5,0.21428571428571,0.42857142857143,0
0.00014298738135892,0.00026300578666855,355,83.5,0.25,0.42857142857143,0
0.00012014594476827,0.0002428178761666,356,83.5,0.28571428571429,0.42857142857143,0
9.4816766671202e-05,0.0002246830564766,357,83.5,0.32142857142857,0.42857142857143,0
7.3464329899808e-05,0.00020567151638076,358,83.5,0.35714285714286,0.42857142857143,0
5.5302665652861e-05,0.0001884452578481,359,83.5,0.39285714285714,0.42857142857143,0
3.8021535972777e-05,0.00017445804295378,360,83.5,0.42857142857143,0.42857142857143,0
2.3907788622142e-05,0.00016939679221258,361,83.5,0.46428571428571,0.42857142857143,0
1.408353669133e-05,0.0001668985459928,362,83.5,0.5,0.42857142857143,0
4.4462466308953e-06,0.00016712150021314,363,83.5,0.53571428571429,0.42857142857143,0
-8.7374297017978e-06,0.00016888559720532,364,83.5,0.57142857142857,0.42857142857143,0
-2.2277690726751e-05,0.00017534191925907,365,83.5,0.60714285714286,0.42857142857143,0
-4.0729916001771e-05,0.00018736960432867,366,83.5,0.64285714285714,0.42857142857143,0
-6.1922360100592e-05,0.00020230335755301,367,83.5,0.67857142857143,0.42857142857143,0
-8.6492888632269e-05,0.0002206228731188,368,83.5,0.71428571428571,0.42857142857143,0
-0.00011327255926287,0.00023998962000214,369,83.5,0.75,0.42857142857143,0
-0.00014278995218646,0.00025985174518928,370,83.5,0.78571428571429,0.42857142857143,0
-0.00017393354328433,0.00027885884060046,371,83.5,0.82142857142857,0.42857142857143,0
-0.00020549084444863,0.0002982942720008,372,83.5,0.85714285714286,0.42857142857143,0
-0.00023658421181232,0.00031869645764939,373,83.5,0.89285714285714,0.42857142857143,0
-0.00026666221035074,0.00034076412757568,374,83.5,0.92857142857143,0.42857142857143,0
-0.00029511608487742,0.00036485396027325,375,83.5,0.96428571428571,0.42857142857143,0
-0.00032192069169497,0.00039104009612874,376,83.5,1,0.42857142857143,0
0.00032040851007306,0.00043887741165399,377,83.5,0.035714285714286,0.46428571428571,0
0.00034738005473742,0.00046380627490646,378,83.5,0,0.46428571428571,0
0.00029365746831259,0.00041439244853113,379,83.5,0.071428571428571,0.46428571428571,0
0.00026713491402684,0.00039041713986055,380,83.5,0.10714285714286,0.46428571428571,0
0.00024099492217937,0.00036661052858558,381,83.5,0.14285714285714,0.46428571428571,0
0.00021547615423501,0.00034358898390188,382,83.5,0.17857142857143,0.46428571428571,0
0.00019003672333879,0.00031972171990155,383,83.5,0.21428571428571,0.46428571428571,0
0.00016615105634013,0.00029770749452223,384,83.5,0.25,0.46428571428571,0
0.00014057892753399,0.00027562710720492,385,83.5,0.28571428571429,0.46428571428571,0
0.00011522609211804,0.00025187522568027,386,83.5,0.32142857142857,0.46428571428571,0
9.2779679342459e-05,0.00023111758070986,387,83.5,0.35714285714286,0.46428571428571,0
7.0782921932259e-05,0.00021231580295305,388,83.5,0.39285714285714,0.46428571428571,0
4.9470928674941e-05,0.00019815992098225,389,83.5,0.42857142857143,0.46428571428571,0
3.0761983347703e-05,0.00018750803265932,390,83.5,0.46428571428571,0.46428571428571,0
1.5580868093269e-05,0.00018293208875721,391,83.5,0.5,0.46428571428571,0
1.3461489614772e-06,0.00018383985822816,392,83.5,0.53571428571429,0.46428571428571,0
-1.6054857627172e-05,0.00019231973881264,393,83.5,0.57142857142857,0.46428571428571,0
-3.5894097271409e-05,0.00020372137569822,394,83.5,0.60714285714286,0.46428571428571,0
-5.6447832895441e-05,0.00021801378060469,395,83.5,0.64285714285714,0.46428571428571,0
-8.0874648526918e-05,0.00023683739507412,396,83.5,0.67857142857143,0.46428571428571,0
-0.00010665602895713,0.00025664686246147,397,83.5,0.71428571428571,0.46428571428571,0
-0.00013433527871989,0.00027838214516647,398,83.5,0.75,0.46428571428571,0
-0.00016285606296675,0.00029963894353044,399,83.5,0.78571428571429,0.46428571428571,0
-0.00019286551222335,0.00032028320186596,400,83.5,0.82142857142857,0.46428571428571,0
-0.00022433629728923,0.00034013336396242,401,83.5,0.85714285714286,0.46428571428571,0
-0.00025640810556248,0.0003602751974065,402,83.5,0.89285714285714,0.46428571428571,0
-0.00028817944896898,0.00038128016298022,403,83.5,0.92857142857143,0.46428571428571,0
-0.00031900870885906,0.00040382356221001,404,83.5,0.96428571428571,0.46428571428571,0
-0.00034842225861107,0.00042841663770567,405,83.5,1,0.46428571428571,0
0.0003451593684478,0.00047602445595859,406,83.5,0.035714285714286,0.5,0
0.00037282905765873,0.00050138365584353,407,83.5,0,0.5,0
0.00031791087720122,0.00045134437542833,408,83.5,0.071428571428571,0.5,0
0.00029104325631723,0.00042690557061729,409,83.5,0.10714285714286,0.5,0
0.00026461911738196,0.00040281203403809,410,83.5,0.14285714285714,0.5,0
0.00023901734578923,0.00037838934388222,411,83.5,0.17857142857143,0.5,0
0.00021467857755783,0.00035493773181805,412,83.5,0.21428571428571,0.5,0
0.0001900491248501,0.00033017830083922,413,83.5,0.25,0.5,0
0.00016323814358258,0.00030486742143659,414,83.5,0.28571428571429,0.5,0
0.00013841087242305,0.00028162613264312,415,83.5,0.32142857142857,0.5,0
0.00011241578761101,0.00025897702927482,416,83.5,0.35714285714286,0.5,0
8.7303306787536e-05,0.00024050308011765,417,83.5,0.39285714285714,0.5,0
6.3295243160928e-05,0.00022430708875524,418,83.5,0.42857142857143,0.5,0
4.042654050483e-05,0.00021202688280196,419,83.5,0.46428571428571,0.5,0
1.7865243532652e-05,0.0002052773084681,420,83.5,0.5,0.5,0
-4.9523068289562e-06,0.00020791576803009,421,83.5,0.53571428571429,0.5,0
-2.7272955839457e-05,0.00021688405238196,422,83.5,0.57142857142857,0.5,0
-5.2192625275593e-05,0.00023344065756963,423,83.5,0.60714285714286,0.5,0
-7.6843004890269e-05,0.00025225356211912,424,83.5,0.64285714285714,0.5,0
-0.00010148495848789,0.00027184750492315,425,83.5,0.67857142857143,0.5,0
-0.00012858222362822,0.00029424949004964,426,83.5,0.71428571428571,0.5,0
-0.00015603393998862,0.00031614172713363,427,83.5,0.75,0.5,0
-0.00018428633409046,0.00033868576193041,428,83.5,0.78571428571429,0.5,0
-0.00021352576344986,0.00036065228683162,429,83.5,0.82142857142857,0.5,0
-0.00024412991544253,0.00038198537097709,430,83.5,0.85714285714286,0.5,0
-0.00027607667716704,0.00040268575378615,431,83.5,0.89285714285714,0.5,0
-0.00030874551150109,0.00042356843066678,432,83.5,0.92857142857143,0.5,0
-0.00034141964981685,0.00044530027249737,433,83.5,0.96428571428571,0.5,0
-0.00037337289335647,0.00046854494139743,434,83.5,1,0.5,0
0.00037029894049635,0.00051389979169064,435,83.5,0.035714285714286,0.53571428571429,0
0.00039894056015268,0.00053994547498213,436,83.5,0,0.53571428571429,0
0.00034253303947974,0.00048858160998409,437,83.5,0.071428571428571,0.53571428571429,0
0.0003154836516984,0.0004637129229813,438,83.5,0.10714285714286,0.53571428571429,0
0.00028932271945978,0.00043858968990723,439,83.5,0.14285714285714,0.53571428571429,0
0.00026421662844823,0.00041338066300198,440,83.5,0.17857142857143,0.53571428571429,0
0.00024175364263306,0.00038614939870903,441,83.5,0.21428571428571,0.53571428571429,0
0.00021395503222426,0.0003606456553735,442,83.5,0.25,0.53571428571429,0
0.00018793305178723,0.00033610242859342,443,83.5,0.28571428571429,0.53571428571429,0
0.00016022835266687,0.00031208713601263,444,83.5,0.32142857142857,0.53571428571429,0
0.00013293453399435,0.00029071465785459,445,83.5,0.35714285714286,0.53571428571429,0
0.00010509502764464,0.00027076581639938,446,83.5,0.39285714285714,0.53571428571429,0
7.7825298417521e-05,0.00025435623729051,447,83.5,0.42857142857143,0.53571428571429,0
4.9641770814285e-05,0.00024213021579974,448,83.5,0.46428571428571,0.53571428571429,0
1.9781237353008e-05,0.0002368469389419,449,83.5,0.5,0.53571428571429,0
-1.0392542409211e-05,0.00023841657593917,450,83.5,0.53571428571429,0.53571428571429,0
-4.1012413613935e-05,0.00024865994677838,451,83.5,0.57142857142857,0.53571428571429,0
-6.9580024875817e-05,0.00026405384741133,452,83.5,0.60714285714286,0.53571428571429,0
-9.9155054266143e-05,0.00028528278622601,453,83.5,0.64285714285714,0.53571428571429,0
-0.0001251951094372,0.00030854573473138,454,83.5,0.67857142857143,0.53571428571429,0
-0.00015121390617607,0.00033085499728852,455,83.5,0.71428571428571,0.53571428571429,0
-0.0001785857577477,0.00035422672825659,456,83.5,0.75,0.53571428571429,0
-0.00020674527560899,0.00037719916014428,457,83.5,0.78571428571429,0.53571428571429,0
-0.00023557010352921,0.00040032166766068,458,83.5,0.82142857142857,0.53571428571429,0
-0.00026543608724619,0.00042296821883978,459,83.5,0.85714285714286,0.53571428571429,0
-0.00029671915317962,0.00044511409799018,460,83.5,0.89285714285714,0.53571428571429,0
-0.00032950827939106,0.00046685313906707,461,83.5,0.92857142857143,0.53571428571429,0
-0.00036319454345058,0.00048867630855006,462,83.5,0.96428571428571,0.53571428571429,0
-0.00039691471522673,0.00051115475302531,463,83.5,1,0.53571428571429,0
0.00039630130136387,0.00055261331014495,464,83.5,0.035714285714286,0.57142857142857,0
0.00042576000735608,0.00057950419945548,465,83.5,0,0.57142857142857,0
0.00036787377595109,0.00052618950123474,466,83.5,0.071428571428571,0.57142857142857,0
0.00034099478956315,0.00050009754815458,467,83.5,0.10714285714286,0.57142857142857,0
0.0003154805684428,0.00047391187331319,468,83.5,0.14285714285714,0.57142857142857,0
0.00029186626248217,0.00044649614797011,469,83.5,0.17857142857143,0.57142857142857,0
0.00026814363075157,0.00041924428799003,470,83.5,0.21428571428571,0.57142857142857,0
0.00023968821130045,0.0003927876051663,471,83.5,0.25,0.57142857142857,0
0.00021081034385119,0.00036798749943215,472,83.5,0.28571428571429,0.57142857142857,0
0.00018250882133394,0.0003451573415096,473,83.5,0.32142857142857,0.57142857142857,0
0.00015291975378265,0.00032358543675047,474,83.5,0.35714285714286,0.57142857142857,0
0.00012307210088097,0.00030459395345275,475,83.5,0.39285714285714,0.57142857142857,0
9.1029913364257e-05,0.00028892850956946,476,83.5,0.42857142857143,0.57142857142857,0
5.6972470541982e-05,0.0002789596660187,477,83.5,0.46428571428571,0.57142857142857,0
2.1221254465611e-05,0.00027470697921205,478,83.5,0.5,0.57142857142857,0
-1.608115526846e-05,0.00027725802198782,479,83.5,0.53571428571429,0.57142857142857,0
-5.2192051507164e-05,0.00028557372990268,480,83.5,0.57142857142857,0.57142857142857,0
-8.7663407305566e-05,0.00030044905605843,481,83.5,0.60714285714286,0.57142857142857,0
-0.00011952559103206,0.00031926668438151,482,83.5,0.64285714285714,0.57142857142857,0
-0.00015121315346989,0.00034158253615967,483,83.5,0.67857142857143,0.57142857142857,0
-0.00017563156219964,0.00036763141693936,484,83.5,0.71428571428571,0.57142857142857,0
-0.00020238547584606,0.00039162127782199,485,83.5,0.75,0.57142857142857,0
-0.00023009013122833,0.00041566181235825,486,83.5,0.78571428571429,0.57142857142857,0
-0.00025868524623792,0.00043944736645947,487,83.5,0.82142857142857,0.57142857142857,0
-0.00028818998223427,0.00046336162491234,488,83.5,0.85714285714286,0.57142857142857,0
-0.00031908796567201,0.00048709009136729,489,83.5,0.89285714285714,0.57142857142857,0
-0.00035148770082148,0.00051030546545753,490,83.5,0.92857142857143,0.57142857142857,0
-0.00038519351627847,0.00053292981929597,491,83.5,0.96428571428571,0.57142857142857,0
-0.00041951214155551,0.00055528450089973,492,83.5,1,0.57142857142857,0
0.00042343733699683,0.00059189941602338,493,83.5,0.035714285714286,0.60714285714286,0
0.00045314126536617,0.00061958564855643,494,83.5,0,0.60714285714286,0
0.00039487665633682,0.00056403459419611,495,83.5,0.071428571428571,0.60714285714286,0
0.00036799716780835,0.00053602008215193,496,83.5,0.10714285714286,0.60714285714286,0
0.00034337801978063,0.00050799835232861,497,83.5,0.14285714285714,0.60714285714286,0
0.00031913626851759,0.00048022470423496,498,83.5,0.17857142857143,0.60714285714286,0
0.00029511159030876,0.00045317170883779,499,83.5,0.21428571428571,0.60714285714286,0
0.00026470603370537,0.0004267828528523,500,83.5,0.25,0.60714285714286,0
0.00023451195583267,0.00040208762636695,501,83.5,0.28571428571429,0.60714285714286,0
0.00020355209614348,0.00037935897218446,502,83.5,0.32142857142857,0.60714285714286,0
0.00017249113863463,0.00035907886697747,503,83.5,0.35714285714286,0.60714285714286,0
0.00013852877324062,0.00034198221022592,504,83.5,0.39285714285714,0.60714285714286,0
0.00010205624710599,0.0003291794972371,505,83.5,0.42857142857143,0.60714285714286,0
6.2616805619449e-05,0.00032127592649665,506,83.5,0.46428571428571,0.60714285714286,0
2.1126981431296e-05,0.00031877377816508,507,83.5,0.5,0.60714285714286,0
-2.0565460770446e-05,0.000321224322981,508,83.5,0.53571428571429,0.60714285714286,0
-6.2486746754338e-05,0.0003288134749394,509,83.5,0.57142857142857,0.60714285714286,0
-0.00010164115891669,0.00034086734949802,510,83.5,0.60714285714286,0.60714285714286,0
-0.00013940865357638,0.000357684456557,511,83.5,0.64285714285714,0.60714285714286,0
-0.00017414219583669,0.00037862113711589,512,83.5,0.67857142857143,0.60714285714286,0
-0.00020173886662011,0.00040287440794032,513,83.5,0.71428571428571,0.60714285714286,0
-0.00022751029457416,0.00042862955156815,514,83.5,0.75,0.60714285714286,0
-0.00025465196654052,0.00045350549920074,515,83.5,0.78571428571429,0.60714285714286,0
-0.0002828641737086,0.00047845216988463,516,83.5,0.82142857142857,0.60714285714286,0
-0.00031245017579047,0.00050358998782606,517,83.5,0.85714285714286,0.60714285714286,0
-0.00034316556616395,0.00052867477424058,518,83.5,0.89285714285714,0.60714285714286,0
-0.0003750384979386,0.0005532473760258,519,83.5,0.92857142857143,0.60714285714286,0
-0.00040799624304013,0.00057694993648366,520,83.5,0.96428571428571,0.60714285714286,0
-0.00044175239769772,0.00059967691765905,521,83.5,1,0.60714285714286,0
0.00045186545229601,0.00063098516174698,522,83.5,0.035714285714286,0.64285714285714,0
0.00048090891360837,0.00065944478726911,523,83.5,0,0.64285714285714,0
0.0004238082960591,0.00060168485699876,524,83.5,0.071428571428571,0.64285714285714,0
0.00039712265485305,0.00057193846298506,525,83.5,0.10714285714286,0.64285714285714,0
0.00037130378287507,0.00054241060925038,526,83.5,0.14285714285714,0.64285714285714,0
0.00034662126057013,0.00051474640755314,527,83.5,0.17857142857143,0.64285714285714,0
0.00032104689229982,0.00048816783830111,528,83.5,0.21428571428571,0.64285714285714,0
0.00028986385376214,0.00046245512497405,529,83.5,0.25,0.64285714285714,0
0.00025733899296187,0.00043812955479939,530,83.5,0.28571428571429,0.64285714285714,0
0.00022459024960553,0.00041613229558983,531,83.5,0.32142857142857,0.64285714285714,0
0.00018900246089912,0.0003979930464407,532,83.5,0.35714285714286,0.64285714285714,0
0.00015143639698175,0.00038373913733792,533,83.5,0.39285714285714,0.64285714285714,0
0.00011018785556206,0.00037420121723944,534,83.5,0.42857142857143,0.64285714285714,0
6.6345694951913e-05,0.00036864968042827,535,83.5,0.46428571428571,0.64285714285714,0
2.0921337963787e-05,0.00036735101127317,536,83.5,0.5,0.64285714285714,0
-2.5329622269925e-05,0.00036968881535691,537,83.5,0.53571428571429,0.64285714285714,0
-7.002560863661e-05,0.00037601495223097,538,83.5,0.57142857142857,0.64285714285714,0
-0.00011432542152521,0.00038624566617756,539,83.5,0.60714285714286,0.64285714285714,0
-0.00015580331648068,0.00040063725804828,540,83.5,0.64285714285714,0.64285714285714,0
-0.00019514587256819,0.00041888416971325,541,83.5,0.67857142857143,0.64285714285714,0
-0.00022526900481574,0.00044057852202026,542,83.5,0.71428571428571,0.64285714285714,0
-0.00025345971104164,0.00046504321273448,543,83.5,0.75,0.64285714285714,0
-0.00028037935327394,0.00049104019656766,544,83.5,0.78571428571429,0.64285714285714,0
-0.00030870390328167,0.00051742375691246,545,83.5,0.82142857142857,0.64285714285714,0
-0.00033817152618878,0.00054377373421759,546,83.5,0.85714285714286,0.64285714285714,0
-0.00036862676864705,0.0005698664805461,547,83.5,0.89285714285714,0.64285714285714,0
-0.00039982279818386,0.00059537923280073,548,83.5,0.92857142857143,0.64285714285714,0
-0.00043169901034487,0.0006199306069133,549,83.5,0.96428571428571,0.64285714285714,0
-0.00046414236003114,0.00064319824389993,550,83.5,1,0.64285714285714,0
0.00048139954699818,0.00066910202124967,551,83.5,0.035714285714286,0.67857142857143,0
0.00050918607134734,0.00069829886382947,552,83.5,0,0.67857142857143,0
0.00045417514766161,0.00063893697009359,553,83.5,0.071428571428571,0.67857142857143,0
0.0004271479486447,0.00060843144834479,554,83.5,0.10714285714286,0.67857142857143,0
0.00040017892865169,0.00057878800964964,555,83.5,0.14285714285714,0.67857142857143,0
0.00037296765310874,0.00055007724767018,556,83.5,0.17857142857143,0.67857142857143,0
0.00034677789451124,0.00052478486683269,557,83.5,0.21428571428571,0.67857142857143,0
0.00031338940326376,0.00049937043310933,558,83.5,0.25,0.67857142857143,0
0.0002800282247925,0.00047626814054652,559,83.5,0.28571428571429,0.67857142857143,0
0.00024271046997344,0.000457044766189,560,83.5,0.32142857142857,0.67857142857143,0
0.00020359043686291,0.00044097632076958,561,83.5,0.35714285714286,0.67857142857143,0
0.00016078670540698,0.00043015462038749,562,83.5,0.39285714285714,0.67857142857143,0
0.00011597145148708,0.00042298407849854,563,83.5,0.42857142857143,0.67857142857143,0
6.8706851002139e-05,0.00042000329796467,564,83.5,0.46428571428571,0.67857142857143,0
2.0020235914463e-05,0.00041918316139698,565,83.5,0.5,0.67857142857143,0
-2.8534469637505e-05,0.00042170937075159,566,83.5,0.53571428571429,0.67857142857143,0
-7.752933817179e-05,0.00042674145451459,567,83.5,0.57142857142857,0.67857142857143,0
-0.00012425181362517,0.00043563763514134,568,83.5,0.60714285714286,0.67857142857143,0
-0.00016998690124105,0.00044753424785425,569,83.5,0.64285714285714,0.67857142857143,0
-0.00021229293912761,0.00046277161078927,570,83.5,0.67857142857143,0.67857142857143,0
-0.00024655770590084,0.0004814307391528,571,83.5,0.71428571428571,0.67857142857143,0
-0.00027736822669083,0.00050350509565192,572,83.5,0.75,0.67857142857143,0
-0.00030708244521824,0.00052927194289491,573,83.5,0.78571428571429,0.67857142857143,0
-0.00033594875595019,0.00055638918313865,574,83.5,0.82142857142857,0.67857142857143,0
-0.00036525091263283,0.00058364118102571,575,83.5,0.85714285714286,0.67857142857143,0
-0.00039507533255171,0.00061044435151306,576,83.5,0.89285714285714,0.67857142857143,0
-0.00042537750468659,0.00063652324964329,577,83.5,0.92857142857143,0.67857142857143,0
-0.00045600124142122,0.00066153526045652,578,83.5,0.96428571428571,0.67857142857143,0
-0.00048689250665702,0.00068518473827619,579,83.5,1,0.67857142857143,0
0.00051149921778986,0.00070614756422596,580,83.5,0.035714285714286,0.71428571428571,0
0.00053789077588695,0.00073550554868677,581,83.5,0,0.71428571428571,0
0.00048471138507887,0.00067595451253461,582,83.5,0.071428571428571,0.71428571428571,0
0.00045732020939508,0.00064595412139017,583,83.5,0.10714285714286,0.71428571428571,0
0.00042909080137708,0.00061648280057744,584,83.5,0.14285714285714,0.71428571428571,0
0.00040005391512121,0.00058884724358932,585,83.5,0.17857142857143,0.71428571428571,0
0.0003700875996447,0.0005618589659344,586,83.5,0.21428571428571,0.71428571428571,0
0.00033700730578077,0.00053801203008138,587,83.5,0.25,0.71428571428571,0
0.00029856818851576,0.00051835176460475,588,83.5,0.28571428571429,0.71428571428571,0
0.00025898551482124,0.00050110605515268,589,83.5,0.32142857142857,0.71428571428571,0
0.00021468421141182,0.00048931883573828,590,83.5,0.35714285714286,0.71428571428571,0
0.00016835852382254,0.00048011869318861,591,83.5,0.39285714285714,0.71428571428571,0
0.00011950596692964,0.00047569540955318,592,83.5,0.42857142857143,0.71428571428571,0
6.9896793505024e-05,0.0004732617251252,593,83.5,0.46428571428571,0.71428571428571,0
1.9474650218144e-05,0.00047407410644909,594,83.5,0.5,0.71428571428571,0
-3.22036610052e-05,0.00047608655616081,595,83.5,0.53571428571429,0.71428571428571,0
-8.3016543615655e-05,0.00048126121411784,596,83.5,0.57142857142857,0.71428571428571,0
-0.00013364917120373,0.0004874867773485,597,83.5,0.60714285714286,0.71428571428571,0
-0.000180549519817,0.00049747151355934,598,83.5,0.64285714285714,0.71428571428571,0
-0.00022692767098734,0.00051054922888984,599,83.5,0.67857142857143,0.71428571428571,0
-0.0002639738170618,0.00052556474730976,600,83.5,0.71428571428571,0.71428571428571,0
-0.00029968981208326,0.00054612373038214,601,83.5,0.75,0.71428571428571,0
-0.000332636538578,0.00056965977359896,602,83.5,0.78571428571429,0.71428571428571,0
-0.00036349321303319,0.00059588096200722,603,83.5,0.82142857142857,0.71428571428571,0
-0.00039300074322303,0.00062305781782045,604,83.5,0.85714285714286,0.71428571428571,0
-0.0004221912896642,0.00065014331769496,605,83.5,0.89285714285714,0.71428571428571,0
-0.00045135727354292,0.00067645609570815,606,83.5,0.92857142857143,0.71428571428571,0
-0.00048059191683999,0.00070165578118042,607,83.5,0.96428571428571,0.71428571428571,0
-0.0005098711266493,0.00072544057760763,608,83.5,1,0.71428571428571,0
0.00054117273809666,0.00074233342832763,609,83.5,0.035714285714286,0.75,0
0.00056652095546756,0.00077106550289765,610,83.5,0,0.75,0
0.00051462432490071,0.00071318001091166,611,83.5,0.071428571428571,0.75,0
0.00048669859222162,0.00068409813324832,612,83.5,0.10714285714286,0.75,0
0.00045732327705327,0.00065615658717792,613,83.5,0.14285714285714,0.75,0
0.00042638856727434,0.0006291608317644,614,83.5,0.17857142857143,0.75,0
0.00039287885864313,0.00060556963194884,615,83.5,0.21428571428571,0.75,0
0.00035746520313256,0.00058256088699408,616,83.5,0.25,0.75,0
0.00031602821339253,0.00056300385315667,617,83.5,0.28571428571429,0.75,0
0.00027052324113518,0.00055046744782857,618,83.5,0.32142857142857,0.75,0
0.00022396657363361,0.00054004974773037,619,83.5,0.35714285714286,0.75,0
0.00017374589103809,0.00053490637939939,620,83.5,0.39285714285714,0.75,0
0.00012241474074254,0.00053022563751477,621,83.5,0.42857142857143,0.75,0
7.0481729990225e-05,0.00052929479016188,622,83.5,0.46428571428571,0.75,0
1.7916575012209e-05,0.0005300842932746,623,83.5,0.5,0.75,0
-3.5075263119104e-05,0.00053382410961095,624,83.5,0.53571428571429,0.75,0
-8.8420624255318e-05,0.00053667962175031,625,83.5,0.57142857142857,0.75,0
-0.00013933269112292,0.00054275845504374,626,83.5,0.60714285714286,0.75,0
-0.00019085640509317,0.00054958867836847,627,83.5,0.64285714285714,0.75,0
-0.00023730346756366,0.00056045924277887,628,83.5,0.67857142857143,0.75,0
-0.00027973260996759,0.0005753258928691,629,83.5,0.71428571428571,0.75,0
-0.00031942775387857,0.00059236524041978,630,83.5,0.75,0.75,0
-0.00035601322055588,0.00061330211965502,631,83.5,0.78571428571429,0.75,0
-0.00038942401025439,0.000636877154826,632,83.5,0.82142857142857,0.75,0
-0.00042025724432236,0.00066258482093445,633,83.5,0.85714285714286,0.75,0
-0.00044930990007278,0.00068896773979455,634,83.5,0.89285714285714,0.75,0
-0.00047749107178154,0.00071506414833218,635,83.5,0.92857142857143,0.75,0
-0.00050527430024938,0.00074018738659533,636,83.5,0.96428571428571,0.75,0
-0.00053287146466627,0.00076392683086149,637,83.5,1,0.75,0
0.00056960857342196,0.00077805805949191,638,83.5,0.035714285714286,0.78571428571429,0
0.00059415454195776,0.00080520668081399,639,83.5,0,0.78571428571429,0
0.00054314351002926,0.00075048879582893,640,83.5,0.071428571428571,0.78571428571429,0
0.00051459940308568,0.00072341279537651,641,83.5,0.10714285714286,0.78571428571429,0
0.0004838116036276,0.00069709807375316,642,83.5,0.14285714285714,0.78571428571429,0
0.00045016551669575,0.00067324464086874,643,83.5,0.17857142857143,0.78571428571429,0
0.00041414894885068,0.00065113271198506,644,83.5,0.21428571428571,0.78571428571429,0
0.00037400617662035,0.00063335757634016,645,83.5,0.25,0.78571428571429,0
0.00033139550436688,0.00061619133329354,646,83.5,0.28571428571429,0.78571428571429,0
0.00028142153121531,0.00060206153838646,647,83.5,0.32142857142857,0.78571428571429,0
0.00022966456178141,0.00059569470912501,648,83.5,0.35714285714286,0.78571428571429,0
0.00017824920142892,0.000590086542785,649,83.5,0.39285714285714,0.78571428571429,0
0.00012528025028988,0.00058833966255626,650,83.5,0.42857142857143,0.78571428571429,0
7.0582336694836e-05,0.00058690049547394,651,83.5,0.46428571428571,0.78571428571429,0
1.5670266580377e-05,0.00058900983020095,652,83.5,0.5,0.78571428571429,0
-3.8221959240712e-05,0.00059080490627095,653,83.5,0.53571428571429,0.78571428571429,0
-9.1171376386684e-05,0.00059512637402861,654,83.5,0.57142857142857,0.78571428571429,0
-0.0001457291993547,0.00059873142350328,655,83.5,0.60714285714286,0.78571428571429,0
-0.00019857168986242,0.00060717973502246,656,83.5,0.64285714285714,0.78571428571429,0
-0.00024659612976083,0.00061747618321129,657,83.5,0.67857142857143,0.78571428571429,0
-0.00029319546083514,0.00062808699736437,658,83.5,0.71428571428571,0.78571428571429,0
-0.0003363182191282,0.00064280712343521,659,83.5,0.75,0.78571428571429,0
-0.00037625076614352,0.00065995931542113,660,83.5,0.78571428571429,0.78571428571429,0
-0.00041260816287908,0.00068037250116622,661,83.5,0.82142857142857,0.78571428571429,0
-0.00044546029798754,0.00070311206977785,662,83.5,0.85714285714286,0.78571428571429,0
-0.00047537997559087,0.00072756940178602,663,83.5,0.89285714285714,0.78571428571429,0
-0.00050321849585839,0.00075255005445792,664,83.5,0.92857142857143,0.78571428571429,0
-0.00052982124928705,0.00077712560671713,665,83.5,0.96428571428571,0.78571428571429,0
-0.00055569844237882,0.00080052169203826,666,83.5,1,0.78571428571429,0
0.00059608353949602,0.00081333577120227,667,83.5,0.035714285714286,0.82142857142857,0
0.00061995502755954,0.00083826341484418,668,83.5,0,0.82142857142857,0
0.00056952486168318,0.00078828727778008,669,83.5,0.071428571428571,0.82142857142857,0
0.00054010234384739,0.00076367533462272,670,83.5,0.10714285714286,0.82142857142857,0
0.00050734341171806,0.00074073162564394,671,83.5,0.14285714285714,0.82142857142857,0
0.00047137526480637,0.00071945555204358,672,83.5,0.17857142857143,0.82142857142857,0
0.00043138893229537,0.00070159124890698,673,83.5,0.21428571428571,0.82142857142857,0
0.00038875658889757,0.00068591582846907,674,83.5,0.25,0.82142857142857,0
0.00034149332673952,0.00067437927552207,675,83.5,0.28571428571429,0.82142857142857,0
0.00029245309951608,0.00066295175331285,676,83.5,0.32142857142857,0.82142857142857,0
0.00023584136696726,0.00065241230351762,677,83.5,0.35714285714286,0.82142857142857,0
0.00018141230038002,0.00064816868099647,678,83.5,0.39285714285714,0.82142857142857,0
0.00012723571607922,0.00064654551726935,679,83.5,0.42857142857143,0.82142857142857,0
7.0616882320181e-05,0.00064903785186045,680,83.5,0.46428571428571,0.82142857142857,0
1.3904105476285e-05,0.00064754975179947,681,83.5,0.5,0.82142857142857,0
-4.0369987431794e-05,0.00064954198497548,682,83.5,0.53571428571429,0.82142857142857,0
-9.5377374808307e-05,0.00065332298049112,683,83.5,0.57142857142857,0.82142857142857,0
-0.00015252724380838,0.00066141657051934,684,83.5,0.60714285714286,0.82142857142857,0
-0.00020403917146955,0.00066901556624624,685,83.5,0.64285714285714,0.82142857142857,0
-0.00025530282120215,0.00067570167174127,686,83.5,0.67857142857143,0.82142857142857,0
-0.00030367295011066,0.00068517996029077,687,83.5,0.71428571428571,0.82142857142857,0
-0.00035013864368486,0.00069599718716294,688,83.5,0.75,0.82142857142857,0
-0.00039300539173631,0.00071002372286648,689,83.5,0.78571428571429,0.82142857142857,0
-0.00043221651603936,0.00072641391411762,690,83.5,0.82142857142857,0.82142857142857,0
-0.00046751519623928,0.00074558824863655,691,83.5,0.85714285714286,0.82142857142857,0
-0.00049911964350341,0.00076688509634874,692,83.5,0.89285714285714,0.82142857142857,0
-0.0005275778404657,0.00078962821886766,693,83.5,0.92857142857143,0.82142857142857,0
-0.00055364417677579,0.00081271699707077,694,83.5,0.96428571428571,0.82142857142857,0
-0.00057801550493138,0.00083513985296224,695,83.5,1,0.82142857142857,0
0.00061980664629236,0.00084846968263653,696,83.5,0.035714285714286,0.85714285714286,0
0.00064311552495244,0.00087019827994915,697,83.5,0,0.85714285714286,0
0.00059291051160813,0.00082663031609777,698,83.5,0.071428571428571,0.85714285714286,0
0.00056213816481616,0.00080576611888592,699,83.5,0.10714285714286,0.85714285714286,0
0.00052749650970203,0.0007863018542682,700,83.5,0.14285714285714,0.85714285714286,0
0.0004885275545821,0.00076938075372477,701,83.5,0.17857142857143,0.85714285714286,0
0.00044598971460038,0.00075455183311076,702,83.5,0.21428571428571,0.85714285714286,0
0.00039923586303763,0.000743097988607,703,83.5,0.25,0.85714285714286,0
0.00035056648368239,0.00073343292862626,704,83.5,0.28571428571429,0.85714285714286,0
0.00029779013948715,0.00072652562012497,705,83.5,0.32142857142857,0.85714285714286,0
0.00024333305264577,0.00072013190299091,706,83.5,0.35714285714286,0.85714285714286,0
0.00018491995651937,0.00071413862015339,707,83.5,0.39285714285714,0.85714285714286,0
0.00012892095506394,0.00071116765964311,708,83.5,0.42857142857143,0.85714285714286,0
7.0671799264231e-05,0.00070839471164108,709,83.5,0.46428571428571,0.85714285714286,0
1.2573692812163e-05,0.00071209341794739,710,83.5,0.5,0.85714285714286,0
-4.319378260737e-05,0.00071549282742563,711,83.5,0.53571428571429,0.85714285714286,0
-0.00010100994711427,0.00072096382967404,712,83.5,0.57142857142857,0.85714285714286,0
-0.00015581710419418,0.00072602411697839,713,83.5,0.60714285714286,0.85714285714286,0
-0.00020997548218339,0.00073082379962272,714,83.5,0.64285714285714,0.85714285714286,0
-0.00026158520918833,0.00073711929415857,715,83.5,0.67857142857143,0.85714285714286,0
-0.0003125131475288,0.0007437741130626,716,83.5,0.71428571428571,0.85714285714286,0
-0.00036065469583085,0.00075245975745376,717,83.5,0.75,0.85714285714286,0
-0.00040615131723087,0.00076256300730052,718,83.5,0.78571428571429,0.85714285714286,0
-0.00044788315119108,0.00077528955775723,719,83.5,0.82142857142857,0.85714285714286,0
-0.00048573631445657,0.00079033479454476,720,83.5,0.85714285714286,0.85714285714286,0
-0.00051950794712576,0.00080783081175325,721,83.5,0.89285714285714,0.85714285714286,0
-0.00054935808115406,0.00082717480541618,722,83.5,0.92857142857143,0.85714285714286,0
-0.00057568985808807,0.00084757789155627,723,83.5,0.96428571428571,0.85714285714286,0
-0.00059906713302333,0.00086790982979738,724,83.5,1,0.85714285714286,0
0.00063982589344279,0.0008835327038542,725,83.5,0.035714285714286,0.89285714285714,0
0.00066270628679557,0.00090116873011027,726,83.5,0,0.89285714285714,0
0.00061230290413883,0.00086608301394979,727,83.5,0.071428571428571,0.89285714285714,0
0.00058014647629966,0.00084946406115193,728,83.5,0.10714285714286,0.89285714285714,0
0.00054323121421709,0.00083461287510169,729,83.5,0.14285714285714,0.89285714285714,0
0.00050209057337772,0.00082158931114782,730,83.5,0.17857142857143,0.89285714285714,0
0.00045654017780934,0.00081109335614933,731,83.5,0.21428571428571,0.89285714285714,0
0.0004080089493139,0.00080226412435271,732,83.5,0.25,0.89285714285714,0
0.00035587371943945,0.00079580953557112,733,83.5,0.28571428571429,0.89285714285714,0
0.00030233696037373,0.00079084318268113,734,83.5,0.32142857142857,0.89285714285714,0
0.00024642091455867,0.00078689692329232,735,83.5,0.35714285714286,0.89285714285714,0
0.00018989540243784,0.00078266172242246,736,83.5,0.39285714285714,0.89285714285714,0
0.00013039511741538,0.00077889893213777,737,83.5,0.42857142857143,0.89285714285714,0
7.0864900282262e-05,0.00077901662214899,738,83.5,0.46428571428571,0.89285714285714,0
1.1549849615581e-05,0.00077948504757849,739,83.5,0.5,0.89285714285714,0
-4.7234856568576e-05,0.00078336235920315,740,83.5,0.53571428571429,0.89285714285714,0
-0.00010335521590184,0.00078742720479923,741,83.5,0.57142857142857,0.89285714285714,0
-0.0001592530658077,0.00079094871818735,742,83.5,0.60714285714286,0.89285714285714,0
-0.00021361769515932,0.00079484170279147,743,83.5,0.64285714285714,0.89285714285714,0
-0.00026738332313627,0.00079918135230849,744,83.5,0.67857142857143,0.89285714285714,0
-0.00031883714967609,0.00080455065053805,745,83.5,0.71428571428571,0.89285714285714,0
-0.0003686790865755,0.00081032504337359,746,83.5,0.75,0.89285714285714,0
-0.00041564296773936,0.00081765066197705,747,83.5,0.78571428571429,0.89285714285714,0
-0.0004596389772406,0.00082650123319882,748,83.5,0.82142857142857,0.89285714285714,0
-0.00049980605517002,0.00083759620691315,749,83.5,0.85714285714286,0.89285714285714,0
-0.00053583912050159,0.00085077609609689,750,83.5,0.89285714285714,0.89285714285714,0
-0.00056744466849071,0.00086593120096545,751,83.5,0.92857142857143,0.89285714285714,0
-0.00059463546176816,0.00088240999433324,752,83.5,0.96428571428571,0.89285714285714,0
-0.00061762416520678,0.00089928624063552,753,83.5,1,0.89285714285714,0
0.00065506095441628,0.00091883006443042,754,83.5,0.035714285714286,0.92857142857143,0
0.00067772967124856,0.00093125624915797,755,83.5,0,0.92857142857143,0
0.00062693802330743,0.00090653852122448,756,83.5,0.071428571428571,0.92857142857143,0
0.00059331990789338,0.00089512593984949,757,83.5,0.10714285714286,0.92857142857143,0
0.00055468770803475,0.00088489985774904,758,83.5,0.14285714285714,0.92857142857143,0
0.00051129626318661,0.00087640565544811,759,83.5,0.17857142857143,0.92857142857143,0
0.00046424655487884,0.00086935685621808,760,83.5,0.21428571428571,0.92857142857143,0
0.00041342513560369,0.00086402323869641,761,83.5,0.25,0.92857142857143,0
0.00036032973695512,0.00085975898364651,762,83.5,0.28571428571429,0.92857142857143,0
0.00030497588632221,0.00085646487268872,763,83.5,0.32142857142857,0.92857142857143,0
0.00024903469013594,0.00085357692172961,764,83.5,0.35714285714286,0.92857142857143,0
0.000191042848461,0.00085115291452663,765,83.5,0.39285714285714,0.92857142857143,0
0.00013168086495023,0.00084976645295643,766,83.5,0.42857142857143,0.92857142857143,0
7.1211597711751e-05,0.00084879215853335,767,83.5,0.46428571428571,0.92857142857143,0
1.1027319131963e-05,0.00084983006600169,768,83.5,0.5,0.92857142857143,0
-4.7968571210497e-05,0.00085132698482669,769,83.5,0.53571428571429,0.92857142857143,0
-0.00010563700786996,0.00085389744364522,770,83.5,0.57142857142857,0.92857142857143,0
-0.00016155425839064,0.00085677346450436,771,83.5,0.60714285714286,0.92857142857143,0
-0.00021709798402698,0.00085959905156265,772,83.5,0.64285714285714,0.92857142857143,0
-0.00027103232605762,0.0008626305813649,773,83.5,0.67857142857143,0.92857142857143,0
-0.00032362489683673,0.00086580750325118,774,83.5,0.71428571428571,0.92857142857143,0
-0.00037389198053334,0.00086968242521021,775,83.5,0.75,0.92857142857143,0
-0.00042219909653346,0.00087415793024769,776,83.5,0.78571428571429,0.92857142857143,0
-0.00046761163397407,0.00087989871754531,777,83.5,0.82142857142857,0.92857142857143,0
-0.00050971530319779,0.00088698535996598,778,83.5,0.85714285714286,0.92857142857143,0
-0.00054766505703096,0.00089578946662253,779,83.5,0.89285714285714,0.92857142857143,0
-0.00058097504674889,0.00090615210278808,780,83.5,0.92857142857143,0.92857142857143,0
-0.00060920627172533,0.00091773307595412,781,83.5,0.96428571428571,0.92857142857143,0
-0.00063223534273834,0.00092982568150394,782,83.5,1,0.92857142857143,0
0.00066465002161175,0.00095432132206757,783,83.5,0.035714285714286,0.96428571428571,0
0.0006871836359722,0.00096078836304612,784,83.5,0,0.96428571428571,0
0.00063598053280389,0.0009480074474677,785,83.5,0.071428571428571,0.96428571428571,0
0.00060146264965288,0.00094213933159084,786,83.5,0.10714285714286,0.96428571428571,0
0.00056144067551366,0.00093703557116874,787,83.5,0.14285714285714,0.96428571428571,0
0.00051690917014292,0.00093268349127579,788,83.5,0.17857142857143,0.96428571428571,0
0.00046830271197384,0.00092933174475252,789,83.5,0.21428571428571,0.96428571428571,0
0.0004169154344545,0.00092678263671591,790,83.5,0.25,0.96428571428571,0
0.00036285406862693,0.00092479578882779,791,83.5,0.28571428571429,0.96428571428571,0
0.00030730329889049,0.00092285709421375,792,83.5,0.32142857142857,0.96428571428571,0
0.00024978718448563,0.00092129330736261,793,83.5,0.35714285714286,0.96428571428571,0
0.00019124655193068,0.00092050282903472,794,83.5,0.39285714285714,0.96428571428571,0
0.00013170130099226,0.00091990910701835,795,83.5,0.42857142857143,0.96428571428571,0
7.1644993063839e-05,0.00091971565543587,796,83.5,0.46428571428571,0.96428571428571,0
1.1529919390783e-05,0.00091976956746865,797,83.5,0.5,0.96428571428571,0
-4.795971983516e-05,0.0009204641549869,798,83.5,0.53571428571429,0.96428571428571,0
-0.00010642340994095,0.00092145617713599,799,83.5,0.57142857142857,0.96428571428571,0
-0.00016372732036056,0.0009230962949088,800,83.5,0.60714285714286,0.96428571428571,0
-0.00021920260476924,0.00092484998579521,801,83.5,0.64285714285714,0.96428571428571,0
-0.00027353379698557,0.00092629135526961,802,83.5,0.67857142857143,0.96428571428571,0
-0.00032605452629642,0.00092780458155908,803,83.5,0.71428571428571,0.96428571428571,0
-0.00037709000421725,0.00092958600231396,804,83.5,0.75,0.96428571428571,0
-0.00042587981124118,0.00093186690167709,805,83.5,0.78571428571429,0.96428571428571,0
-0.00047231672978461,0.00093458542815954,806,83.5,0.82142857142857,0.96428571428571,0
-0.00051549924500579,0.00093807374292118,807,83.5,0.85714285714286,0.96428571428571,0
-0.00055481168562548,0.00094242397358728,808,83.5,0.89285714285714,0.96428571428571,0
-0.00058932599455063,0.00094769497965879,809,83.5,0.92857142857143,0.96428571428571,0
-0.00061839255974075,0.00095366493559546,810,83.5,0.96428571428571,0.96428571428571,0
-0.00064158810224384,0.00095998032821863,811,83.5,1,0.96428571428571,0
0.00066790428826139,0.00099,812,83.5,0.035714285714286,1,0
0.0006904374363225,0.00099,813,83.5,0,1,0
0.00063908217507063,0.00099,814,83.5,0.071428571428571,1,0
0.00060413468051359,0.00099,815,83.5,0.10714285714286,1,0
0.00056380820149197,0.00099,816,83.5,0.14285714285714,1,0
0.00051860225806811,0.00099,817,83.5,0.17857142857143,1,0
0.0004697622415356,0.00099,818,83.5,0.21428571428571,1,0
0.00041784224757906,0.00099,819,83.5,0.25,1,0
0.00036404719881684,0.00099,820,83.5,0.28571428571429,1,0
0.00030787709360799,0.00099,821,83.5,0.32142857142857,1,0
0.00025013625434803,0.00099,822,83.5,0.35714285714286,1,0
0.00019107870803487,0.00099,823,83.5,0.39285714285714,1,0
0.0001315851331315,0.00099,824,83.5,0.42857142857143,1,0
7.1788682017994e-05,0.00099,825,83.5,0.46428571428571,1,0
1.1913737168632e-05,0.00099,826,83.5,0.5,1,0
-4.7790896680205e-05,0.00099,827,83.5,0.53571428571429,1,0
-0.00010677949833138,0.00099,828,83.5,0.57142857142857,1,0
-0.00016430239390321,0.00099,829,83.5,0.60714285714286,1,0
-0.00022023604931217,0.00099,830,83.5,0.64285714285714,1,0
-0.00027417717031794,0.00099,831,83.5,0.67857142857143,1,0
-0.00032697082564413,0.00099,832,83.5,0.71428571428571,1,0
-0.00037799489186054,0.00099,833,83.5,0.75,1,0
-0.0004271976049363,0.00099,834,83.5,0.78571428571429,1,0
-0.00047378931078937,0.00099,835,83.5,0.82142857142857,1,0
-0.00051744175842594,0.00099,836,83.5,0.85714285714286,1,0
-0.00055717230345186,0.00099,837,83.5,0.89285714285714,1,0
-0.00059215888533372,0.00099,838,83.5,0.92857142857143,1,0
-0.00062152775757681,0.00099,839,83.5,0.96428571428571,1,0
-0.00064481031415265,0.00099,840,83.5,1,1,0
