disp_x,disp_y,id,vonmises_stress_nodal,x,y,z
0,0,0,83.5,0,0,0
0,0,1,83.5,0.035714285714286,0,0
2.3905207630333e-05,2.2573056729916e-05,2,83.5,0.035714285714286,0.035714285714286,0
6.7113336104979e-05,5.0703417668679e-05,3,83.5,0,0.035714285714286,0
0,0,4,81.729019504138,0.071428571428571,0,0
1.2857322690458e-05,1.6203041934775e-05,5,82.614509752069,0.071428571428571,0.035714285714286,0
0,0,6,76.247471161004,0.10714285714286,0,0
1.0404195281607e-05,1.4542822660663e-05,7,79.471987161888,0.10714285714286,0.035714285714286,0
0,0,8,70.22028918828,0.14285714285714,0,0
8.9255153784248e-06,1.4110897384493e-05,9,74.182938138497,0.14285714285714,0.035714285714286,0
0,0,10,65.871963017278,0.17857142857143,0,0
7.549779770309e-06,1.3528478118315e-05,11,69.074592556929,0.17857142857143,0.035714285714286,0
0,0,12,62.238424636723,0.21428571428571,0,0
6.3973694682362e-06,1.3099160891819e-05,13,65.21199588995,0.21428571428571,0.035714285714286,0
0,0,14,59.329985387266,0.25,0,0
5.3771870328828e-06,1.273165890641e-05,15,62.010920849841,0.25,0.035714285714286,0
0,0,16,56.953094712598,0.28571428571429,0,0
4.450613865854e-06,1.2431383251168e-05,17,59.439301684505,0.28571428571429,0.035714285714286,0
0,0,18,55.003311253802,0.32142857142857,0,0
3.5909266123308e-06,1.2176264884795e-05,19,57.341936350807,0.32142857142857,0.035714285714286,0
0,0,20,53.400710920248,0.35714285714286,0,0
2.7748062019616e-06,1.1958561197033e-05,21,55.636002455067,0.35714285714286,0.035714285714286,0
0,0,22,52.085542833929,0.39285714285714,0,0
1.9866040678696e-06,1.1767466582843e-05,23,54.2514229309,0.39285714285714,0.035714285714286,0
0,0,24,51.009794524343,0.42857142857143,0,0
1.2130250836143e-06,1.1594555778403e-05,25,53.131443812088,0.42857142857143,0.035714285714286,0
0,0,26,50.124393366464,0.46428571428571,0,0
4.4704242560267e-07,1.1430568409164e-05,27,52.218299010256,0.46428571428571,0.035714285714286,0
0,0,28,49.370433712511,0.5,0,0
-3.1011940208016e-07,1.1262056748825e-05,29,51.434308454759,0.5,0.035714285714286,0
0,0,30,48.65906102689,0.53571428571429,0,0
-1.0345869981204e-06,1.1082996392879e-05,31,50.687556772651,0.53571428571429,0.035714285714286,0
0,0,32,47.938846162173,0.57142857142857,0,0
-1.6718870591486e-06,1.087095858232e-05,33,49.859631221278,0.57142857142857,0.035714285714286,0
0,0,34,47.642784220886,0.60714285714286,0,0
-2.0938094744772e-06,1.0746703730998e-05,35,49.145513216106,0.60714285714286,0.035714285714286,0
0,0,36,48.704552660301,0.64285714285714,0,0
-2.3851738679628e-06,1.0945088385929e-05,37,49.870443715061,0.64285714285714,0.035714285714286,0
0,0,38,51.715091363356,0.67857142857143,0,0
-2.7892242213035e-06,1.1587745251482e-05,39,53.441222629105,0.67857142857143,0.035714285714286,0
0,0,40,56.075972679679,0.71428571428571,0,0
-3.6189179095651e-06,1.2458477349185e-05,41,59.021606169262,0.71428571428571,0.035714285714286,0
0,0,42,60.530159911733,0.75,0,0
-4.8358588398083e-06,1.3183934659753e-05,43,64.161542329965,0.75,0.035714285714286,0
0,0,44,64.356809227171,0.78571428571429,0,0
-6.2563622022909e-06,1.3647647667826e-05,45,67.928279632095,0.78571428571429,0.035714285714286,0
0,0,46,67.615398852128,0.82142857142857,0,0
-7.7058891102238e-06,1.3852548194204e-05,47,71.144718039978,0.82142857142857,0.035714285714286,0
0,0,48,71.03306787241,0.85714285714286,0,0
-9.1027698863528e-06,1.4161158034534e-05,49,75.036725872903,0.85714285714286,0.035714285714286,0
0,0,50,76.467247819795,0.89285714285714,0,0
-1.0533628530579e-05,1.4546419244175e-05,51,79.548172156087,0.89285714285714,0.035714285714286,0
0,0,52,81.761394413956,0.92857142857143,0,0
-1.2884572791085e-05,1.6201647470662e-05,53,82.630697206978,0.92857142857143,0.035714285714286,0
0,0,54,83.5,0.96428571428571,0,0
-2.2680909147129e-05,2.1434845434689e-05,55,83.5,0.96428571428571,0.035714285714286,0
0,0,56,83.5,1,0,0
-5.8435597169419e-05,4.4516127774565e-05,57,83.5,1,0.035714285714286,0
6.4997192058345e-05,6.5045893879521e-05,58,83.5,0.035714285714286,0.071428571428571,0
8.7984072781774e-05,9.41473203758e-05,59,83.5,0,0.071428571428571,0
3.5965633219796e-05,4.0320930720489e-05,60,83.5,0.071428571428571,0.071428571428571,0
2.2929048041733e-05,3.168022227204e-05,61,83.098251581386,0.10714285714286,0.071428571428571,0
1.8450067727592e-05,2.9011543384835e-05,62,80.596833516826,0.14285714285714,0.071428571428571,0
1.5853805719367e-05,2.7998250967325e-05,63,75.690497853861,0.17857142857143,0.071428571428571,0
1.3435435763226e-05,2.6954279385295e-05,64,70.968359379621,0.21428571428571,0.071428571428571,0
1.1327426842387e-05,2.6164312005892e-05,65,67.400057902477,0.25,0.071428571428571,0
9.4155617201739e-06,2.5499894312219e-05,66,64.438401944528,0.28571428571429,0.071428571428571,0
7.6467478687424e-06,2.4953000477119e-05,67,62.068113699855,0.32142857142857,0.071428571428571,0
5.9801796109935e-06,2.4489588581902e-05,68,60.155545982996,0.35714285714286,0.071428571428571,0
4.3803814390158e-06,2.4091471831459e-05,69,58.627975369663,0.39285714285714,0.071428571428571,0
2.8220046297612e-06,2.3738094322323e-05,70,57.419553762893,0.42857142857143,0.071428571428571,0
1.2838662713707e-06,2.340789260753e-05,71,56.46908785417,0.46428571428571,0.071428571428571,0
-2.4435056372596e-07,2.3076541891767e-05,72,55.710990643439,0.5,0.071428571428571,0
-1.7599983954725e-06,2.2702026044617e-05,73,55.065731113334,0.53571428571429,0.071428571428571,0
-3.2310150530758e-06,2.2286837324229e-05,74,54.451913418627,0.57142857142857,0.071428571428571,0
-4.6071756897698e-06,2.1815613420473e-05,75,53.425442986017,0.60714285714286,0.071428571428571,0
-5.5720413481462e-06,2.2003403420674e-05,76,53.162059642847,0.64285714285714,0.071428571428571,0
-6.6332317141716e-06,2.3537227552717e-05,77,57.537909460111,0.67857142857143,0.071428571428571,0
-8.3549746234026e-06,2.5790677490895e-05,78,65.004341359122,0.71428571428571,0.071428571428571,0
-1.0806171479778e-05,2.7426173813338e-05,79,70.343597221405,0.75,0.071428571428571,0
-1.3247620363257e-05,2.8125075749531e-05,80,73.819710323789,0.78571428571429,0.071428571428571,0
-1.5768554804354e-05,2.8796458519868e-05,81,77.676978301531,0.82142857142857,0.071428571428571,0
-1.8641216154002e-05,2.9081550676177e-05,82,81.240481615312,0.85714285714286,0.071428571428571,0
-2.2888417727748e-05,3.1375744585145e-05,83,83.064548246189,0.89285714285714,0.071428571428571,0
-3.3873676435432e-05,3.8615502672955e-05,84,83.5,0.92857142857143,0.071428571428571,0
-5.6548890551178e-05,5.7993407227614e-05,85,83.5,0.96428571428571,0.071428571428571,0
-7.4620630209033e-05,8.1181380208005e-05,86,83.5,1,0.071428571428571,0
9.0102631706781e-05,0.00010136656584425,87,83.5,0.035714285714286,0.10714285714286,0
0.00011340011205087,0.00012405113083368,88,83.5,0,0.10714285714286,0
6.6525046246754e-05,7.6634948328706e-05,89,83.5,0.071428571428571,0.10714285714286,0
4.2910467589283e-05,5.5951443564036e-05,90,83.5,0.10714285714286,0.10714285714286,0
2.9909716193754e-05,4.6433831546464e-05,91,83.274039972469,0.14285714285714,0.10714285714286,0
2.4352032069224e-05,4.3084160631185e-05,92,81.134868426939,0.17857142857143,0.10714285714286,0
2.0895048814003e-05,4.1642729527493e-05,93,76.731533224307,0.21428571428571,0.10714285714286,0
1.7655189284439e-05,4.0278885268432e-05,94,72.55487112346,0.25,0.10714285714286,0
1.475001508069e-05,3.9218900006123e-05,95,69.405263270794,0.28571428571429,0.10714285714286,0
1.2063825605718e-05,3.8331540640977e-05,96,66.779802681678,0.32142857142857,0.10714285714286,0
9.5389140921782e-06,3.7594965620318e-05,97,64.682297642349,0.35714285714286,0.10714285714286,0
7.1297641903243e-06,3.6968355169556e-05,98,63.010693897621,0.39285714285714,0.10714285714286,0
4.7926974232273e-06,3.6424279562889e-05,99,61.712949388622,0.42857142857143,0.10714285714286,0
2.4939290688371e-06,3.5931313926292e-05,100,60.749479459269,0.46428571428571,0.10714285714286,0
1.9849661542943e-07,3.5450481841868e-05,101,60.100556479091,0.5,0.10714285714286,0
-2.1281988074019e-06,3.4945326647802e-05,102,59.766742269529,0.53571428571429,0.10714285714286,0
-4.5249690374369e-06,3.4345364064316e-05,103,59.691664893388,0.57142857142857,0.10714285714286,0
-7.0213621109388e-06,3.376367613559e-05,104,59.488884709895,0.60714285714286,0.10714285714286,0
-9.5775841785476e-06,3.3076991672484e-05,105,56.666369000782,0.64285714285714,0.10714285714286,0
-1.1847326267009e-05,3.5908422982741e-05,106,63.884771976371,0.67857142857143,0.10714285714286,0
-1.4928889701965e-05,4.0357082891201e-05,107,75.00943321031,0.71428571428571,0.10714285714286,0
-1.7481064333799e-05,4.2146343011966e-05,108,77.384698581891,0.75,0.10714285714286,0
-2.0325482387611e-05,4.3386219918254e-05,109,79.600376053544,0.78571428571429,0.10714285714286,0
-2.3903826665229e-05,4.4297898894269e-05,110,82.089959687617,0.82142857142857,0.10714285714286,0
-2.956644014973e-05,4.7137144786071e-05,111,83.470289678614,0.85714285714286,0.10714285714286,0
-4.0914842595075e-05,5.2950809337345e-05,112,83.5,0.89285714285714,0.10714285714286,0
-5.7622704831526e-05,6.8655485675383e-05,113,83.5,0.92857142857143,0.10714285714286,0
-7.60723395598e-05,8.8706930719048e-05,114,83.5,0.96428571428571,0.10714285714286,0
-9.5187300681131e-05,0.00010718595892483,115,83.5,1,0.10714285714286,0
0.000113470998466,0.00013375851365844,116,83.5,0.035714285714286,0.14285714285714,0
0.00013608758399303,0.00015729500985665,117,83.5,0,0.14285714285714,0
9.036755194331e-05,0.00011091354094334,118,83.5,0.071428571428571,0.14285714285714,0
6.7631439225244e-05,8.8307484904735e-05,119,83.5,0.10714285714286,0.14285714285714,0
4.7101177961938e-05,7.0090766778601e-05,120,83.5,0.14285714285714,0.14285714285714,0
3.4511720780514e-05,6.0511011136391e-05,121,83.332981621368,0.17857142857143,0.14285714285714,0
2.8311587780137e-05,5.6828531961583e-05,122,81.476540063142,0.21428571428571,0.14285714285714,0
2.4192102776273e-05,5.5107861563729e-05,123,77.627907105544,0.25,0.14285714285714,0
2.0293251587553e-05,5.3541350314602e-05,124,74.019980964378,0.28571428571429,0.14285714285714,0
1.6715884108683e-05,5.2296629366859e-05,125,71.309021601073,0.32142857142857,0.14285714285714,0
1.3358802883385e-05,5.1251954657845e-05,126,69.040922544085,0.35714285714286,0.14285714285714,0
1.0160279045172e-05,5.0378213451341e-05,127,67.240335273168,0.39285714285714,0.14285714285714,0
7.0756873279066e-06,4.9630327005155e-05,128,65.844730685353,0.42857142857143,0.14285714285714,0
4.0515531992879e-06,4.8974384596829e-05,129,64.838418193617,0.46428571428571,0.14285714285714,0
1.0397312806895e-06,4.8370825297472e-05,130,64.234127348784,0.5,0.14285714285714,0
-2.0207603222792e-06,4.7766826372386e-05,131,64.059858295987,0.53571428571429,0.14285714285714,0
-5.2143683932269e-06,4.7135595097821e-05,132,64.248630139387,0.57142857142857,0.14285714285714,0
-8.6156696872237e-06,4.6342361542352e-05,133,64.404984769856,0.60714285714286,0.14285714285714,0
-1.2424158011205e-05,4.5691123694597e-05,134,59.948089667296,0.64285714285714,0.14285714285714,0
-1.5386397523673e-05,4.4341857418408e-05,135,69.331203246105,0.67857142857143,0.14285714285714,0
-1.9232403741829e-05,4.5726925305942e-05,136,82.738711680611,0.71428571428571,0.14285714285714,0
-2.1588406099233e-05,4.8203216809275e-05,137,82.687563734584,0.75,0.14285714285714,0
-2.509547178707e-05,5.0547913118998e-05,138,83.280540748264,0.78571428571429,0.14285714285714,0
-3.1505909592677e-05,5.4333584118777e-05,139,83.5,0.82142857142857,0.14285714285714,0
-4.3235373673841e-05,6.1664928108121e-05,140,83.5,0.85714285714286,0.14285714285714,0
-6.2201558899403e-05,7.5539989176997e-05,141,83.5,0.89285714285714,0.14285714285714,0
-7.7198997920928e-05,9.6847464266015e-05,142,83.5,0.92857142857143,0.14285714285714,0
-9.5267519975255e-05,0.00011659877957309,143,83.5,0.96428571428571,0.14285714285714,0
-0.00011453961749133,0.00013711899514586,144,83.5,1,0.14285714285714,0
0.00013634245915993,0.00016686637212173,145,83.5,0.035714285714286,0.17857142857143,0
0.00016008398788213,0.00019042979708924,146,83.5,0,0.17857142857143,0
0.00011325828898379,0.00014372506895236,147,83.5,0.071428571428571,0.17857142857143,0
9.0269562947543e-05,0.00012117908553746,148,83.5,0.10714285714286,0.17857142857143,0
6.8303301458393e-05,0.0001000575104597,149,83.5,0.14285714285714,0.17857142857143,0
4.9500423309269e-05,8.3532312313392e-05,150,83.5,0.17857142857143,0.17857142857143,0
3.7237074588366e-05,7.4200682886489e-05,151,83.370582646867,0.21428571428571,0.17857142857143,0
3.0562707515508e-05,7.0345886054888e-05,152,81.798312774134,0.25,0.17857142857143,0
2.5912066636197e-05,6.8469060644655e-05,153,78.508222704988,0.28571428571429,0.17857142857143,0
2.1476720316241e-05,6.6788020317542e-05,154,75.420696337639,0.32142857142857,0.17857142857143,0
1.7327204988051e-05,6.5427746943626e-05,155,73.113786215056,0.35714285714286,0.17857142857143,0
1.3391412082497e-05,6.4280875691839e-05,156,71.190772099346,0.39285714285714,0.17857142857143,0
9.5981259270583e-06,6.3317816017242e-05,157,69.674093246961,0.42857142857143,0.17857142857143,0
5.9093234992696e-06,6.248959651635e-05,158,68.551789569994,0.46428571428571,0.17857142857143,0
2.263566920489e-06,6.1762441650471e-05,159,67.835456732244,0.5,0.17857142857143,0
-1.3992069649068e-06,6.1090954545491e-05,160,67.502116957372,0.53571428571429,0.17857142857143,0
-5.133102579507e-06,6.0394026973593e-05,161,67.426036014004,0.57142857142857,0.17857142857143,0
-9.0235737673365e-06,5.9602308428013e-05,162,66.800138889101,0.60714285714286,0.17857142857143,0
-1.2831896854004e-05,5.8261913362123e-05,163,63.927287093353,0.64285714285714,0.17857142857143,0
-1.6145257556187e-05,5.4462385987899e-05,164,72.591638025888,0.67857142857143,0.17857142857143,0
-2.2586865445823e-05,5.3037526551012e-05,165,83.5,0.71428571428571,0.17857142857143,0
-2.7471299221773e-05,5.5129124988852e-05,166,83.5,0.75,0.17857142857143,0
-3.3761882059914e-05,6.0439997868703e-05,167,83.5,0.78571428571429,0.17857142857143,0
-4.4963356398703e-05,6.8962840846817e-05,168,83.5,0.82142857142857,0.17857142857143,0
-6.2269026481451e-05,8.2613213245477e-05,169,83.5,0.85714285714286,0.17857142857143,0
-8.3063922403773e-05,0.00010033294509339,170,83.5,0.89285714285714,0.17857142857143,0
-9.9112183697031e-05,0.00012244316115085,171,83.5,0.92857142857143,0.17857142857143,0
-0.00011616900738007,0.00014520290476396,172,83.5,0.96428571428571,0.17857142857143,0
-0.00013611496240436,0.00016738431380657,173,83.5,1,0.17857142857143,0
0.00015996106584283,0.00020051288947614,174,83.5,0.035714285714286,0.21428571428571,0
0.00018441477239149,0.00022489434395612,175,83.5,0,0.21428571428571,0
0.00013603810667574,0.0001769749992007,176,83.5,0.071428571428571,0.21428571428571,0
0.00011268187977274,0.00015405839831365,177,83.5,0.10714285714286,0.21428571428571,0
8.9770960807192e-05,0.00013201203217036,178,83.5,0.14285714285714,0.21428571428571,0
6.8381625424847e-05,0.0001120740918385,179,83.5,0.17857142857143,0.21428571428571,0
5.0556827377007e-05,9.6761308621854e-05,180,83.5,0.21428571428571,0.21428571428571,0
3.8443030981765e-05,8.7729793434422e-05,181,83.421147045782,0.25,0.21428571428571,0
3.1326114749383e-05,8.3745646772564e-05,182,82.157456249204,0.28571428571429,0.21428571428571,0
2.6225747041129e-05,8.1787209975649e-05,183,79.410902992013,0.32142857142857,0.21428571428571,0
2.1355726764519e-05,8.0054690325891e-05,184,76.769760165073,0.35714285714286,0.21428571428571,0
1.6712631482669e-05,7.863823455066e-05,185,74.787557405185,0.39285714285714,0.21428571428571,0
1.2280978962989e-05,7.7430793049274e-05,186,73.142464975543,0.42857142857143,0.21428571428571,0
7.9812519981641e-06,7.6417325772981e-05,187,71.842277901601,0.46428571428571,0.21428571428571,0
3.7821538033447e-06,7.5547605961064e-05,188,70.899457544664,0.5,0.21428571428571,0
-3.6376176615454e-07,7.4776069485847e-05,189,70.255394939235,0.53571428571429,0.21428571428571,0
-4.4904254608496e-06,7.4006177456702e-05,190,69.659706394988,0.57142857142857,0.21428571428571,0
-8.5202697102205e-06,7.302900128045e-05,191,68.747761780294,0.60714285714286,0.21428571428571,0
-1.2367970598541e-05,7.1223427420666e-05,192,68.730572940827,0.64285714285714,0.21428571428571,0
-1.6112600057878e-05,6.6922499241189e-05,193,76.394376206188,0.67857142857143,0.21428571428571,0
-2.5742854306582e-05,6.3940364063264e-05,194,83.5,0.71428571428571,0.21428571428571,0
-3.5372645796902e-05,6.5929757274695e-05,195,83.5,0.75,0.21428571428571,0
-4.699977485648e-05,7.434195918725e-05,196,83.5,0.78571428571429,0.21428571428571,0
-6.2662745372171e-05,8.8311772418369e-05,197,83.5,0.82142857142857,0.21428571428571,0
-8.2143042603681e-05,0.00010601623453825,198,83.5,0.85714285714286,0.21428571428571,0
-0.00010468265201207,0.00012611566514916,199,83.5,0.89285714285714,0.21428571428571,0
-0.00012184142855924,0.00014909506454663,200,83.5,0.92857142857143,0.21428571428571,0
-0.0001401014192635,0.00017332609857717,201,83.5,0.96428571428571,0.21428571428571,0
-0.00015986788675761,0.00019853944601352,202,83.5,1,0.21428571428571,0
0.00018417966816513,0.00023511408610115,203,83.5,0.035714285714286,0.25,0
0.00020943155879674,0.00025997677213186,204,83.5,0,0.25,0
0.00015946728648659,0.0002109322642183,205,83.5,0.071428571428571,0.25,0
0.00013527893298322,0.00018753475677888,206,83.5,0.10714285714286,0.25,0
0.00011165916335636,0.00016489368340436,207,83.5,0.14285714285714,0.25,0
8.8782421556993e-05,0.00014341977306495,208,83.5,0.17857142857143,0.25,0
6.7797361571317e-05,0.00012445717550177,209,83.5,0.21428571428571,0.25,0
5.0518135567929e-05,0.00011003676218995,210,83.5,0.25,0.25,0
3.8394031769875e-05,0.00010125164931331,211,83.489598854122,0.28571428571429,0.25,0
3.0820708886765e-05,9.7107700022055e-05,212,82.497258549718,0.32142857142857,0.25,0
2.528783722313e-05,9.5106952697383e-05,213,80.286853976727,0.35714285714286,0.25,0
2.0066008458375e-05,9.3378448449202e-05,214,78.041485088521,0.39285714285714,0.25,0
1.501079024257e-05,9.1930878443075e-05,215,76.246484456609,0.42857142857143,0.25,0
1.0167561557801e-05,9.0694904416402e-05,216,74.815663785702,0.46428571428571,0.25,0
5.4587663223617e-06,8.966437647153e-05,217,73.665534962427,0.5,0.25,0
8.6128015224859e-07,8.8763574738091e-05,218,72.801056854551,0.53571428571429,0.25,0
-3.628754200935e-06,8.7888032815083e-05,219,72.196196986048,0.57142857142857,0.25,0
-8.0059961917283e-06,8.6735844269066e-05,220,71.95398142634,0.60714285714286,0.25,0
-1.2239662681594e-05,8.4924670249888e-05,221,74.717997683188,0.64285714285714,0.25,0
-1.6790656193874e-05,8.1598155637077e-05,222,80.493221214289,0.67857142857143,0.25,0
-2.9929611261448e-05,7.9172729397541e-05,223,83.5,0.71428571428571,0.25,0
-4.5394196329078e-05,8.2482614901129e-05,224,83.5,0.75,0.25,0
-6.2628800891047e-05,9.3017179539866e-05,225,83.5,0.78571428571429,0.25,0
-8.1692869062952e-05,0.00011037233582177,226,83.5,0.82142857142857,0.25,0
-0.00010337172507279,0.00013095056702457,227,83.5,0.85714285714286,0.25,0
-0.00012716922606794,0.00015330450382686,228,83.5,0.89285714285714,0.25,0
-0.0001459202069261,0.0001772311511489,229,83.5,0.92857142857143,0.25,0
-0.00016555577235091,0.00020266118363953,230,83.5,0.96428571428571,0.25,0
-0.0001866397528937,0.00022970789618132,231,83.5,1,0.25,0
0.00020896918216041,0.00027045423381628,232,83.5,0.035714285714286,0.28571428571429,0
0.00023482820969206,0.00029575705230253,233,83.5,0,0.28571428571429,0
0.00018348258888665,0.00024578090307738,234,83.5,0.071428571428571,0.28571428571429,0
0.00015848343623757,0.00022181192424941,235,83.5,0.10714285714286,0.28571428571429,0
0.00013399806013033,0.00019861982086301,236,83.5,0.14285714285714,0.28571428571429,0
0.00011013151301524,0.00017629926233943,237,83.5,0.17857142857143,0.28571428571429,0
8.7259469233744e-05,0.00015539804494795,238,83.5,0.21428571428571,0.28571428571429,0
6.6544557442086e-05,0.00013724098643939,239,83.5,0.25,0.28571428571429,0
4.9555486810189e-05,0.00012347574329365,240,83.5,0.28571428571429,0.28571428571429,0
3.7289780001496e-05,0.00011487079000293,241,83.5,0.32142857142857,0.28571428571429,0
2.9214539672245e-05,0.00011053590360735,242,82.802356136921,0.35714285714286,0.28571428571429,0
2.3263995279643e-05,0.00010846104672545,243,81.178485112043,0.39285714285714,0.28571428571429,0
1.7755504136376e-05,0.00010675075779283,244,79.234870871187,0.42857142857143,0.28571428571429,0
1.2356390670995e-05,0.00010530113647454,245,77.574294043131,0.46428571428571,0.28571428571429,0
7.1470273284324e-06,0.00010407868299105,246,76.423175174433,0.5,0.28571428571429,0
2.0825277690536e-06,0.00010305449635202,247,75.621209957281,0.53571428571429,0.28571428571429,0
-2.8899340531636e-06,0.00010209586497376,248,75.383339639317,0.57142857142857,0.28571428571429,0
-7.8618565570548e-06,0.0001010632669547,249,76.853676090019,0.60714285714286,0.28571428571429,0
-1.2889210090283e-05,9.9340181730574e-05,250,80.423742632187,0.64285714285714,0.28571428571429,0
-1.9299831526908e-05,9.8682458189083e-05,251,83.039819251571,0.67857142857143,0.28571428571429,0
-3.6550673561862e-05,9.8976464525839e-05,252,83.5,0.71428571428571,0.28571428571429,0
-5.6341792839766e-05,0.00010423144626237,253,83.5,0.75,0.28571428571429,0
-7.8564811604664e-05,0.00011672931993987,254,83.5,0.78571428571429,0.28571428571429,0
-0.00010175307735398,0.00013479413160619,255,83.5,0.82142857142857,0.28571428571429,0
-0.0001252770151187,0.00015756633356077,256,83.5,0.85714285714286,0.28571428571429,0
-0.00015100462956407,0.00018199581085084,257,83.5,0.89285714285714,0.28571428571429,0
-0.00017097972423088,0.00020685595668493,258,83.5,0.92857142857143,0.28571428571429,0
-0.00019251906412908,0.00023380477282116,259,83.5,0.96428571428571,0.28571428571429,0
-0.00021435335547194,0.00026127573911206,260,83.5,1,0.28571428571429,0
0.00023414752861941,0.00030646384601688,261,83.5,0.035714285714286,0.32142857142857,0
0.00026052755836516,0.00033202649072143,262,83.5,0,0.32142857142857,0
0.00020802765588209,0.00028139964430491,263,83.5,0.071428571428571,0.32142857142857,0
0.00018226290209201,0.00025695729134056,264,83.5,0.10714285714286,0.32142857142857,0
0.00015695760243585,0.00023321865356026,265,83.5,0.14285714285714,0.32142857142857,0
0.0001321729473961,0.00021026427321517,266,83.5,0.17857142857143,0.32142857142857,0
0.0001080844083,0.00018828414658209,267,83.5,0.21428571428571,0.32142857142857,0
8.51991905454e-05,0.00016791562246355,268,83.5,0.25,0.32142857142857,0
6.4644608462895e-05,0.0001504224217805,269,83.5,0.28571428571429,0.32142857142857,0
4.7780282146608e-05,0.0001371466115301,270,83.5,0.32142857142857,0.32142857142857,0
3.5303140576082e-05,0.00012863733809537,271,83.5,0.35714285714286,0.32142857142857,0
2.6709052436984e-05,0.00012405518577402,272,83.132750560635,0.39285714285714,0.32142857142857,0
2.0315285799725e-05,0.00012183714572271,273,82.042764774076,0.42857142857143,0.32142857142857,0
1.4506809494746e-05,0.00012019365969877,274,80.493615480994,0.46428571428571,0.32142857142857,0
8.7831769769844e-06,0.00011880805375806,275,79.271861078919,0.5,0.32142857142857,0
3.1463816739072e-06,0.00011767082526501,276,78.790684633088,0.53571428571429,0.32142857142857,0
-2.4061344988659e-06,0.00011675673070885,277,79.420850835233,0.57142857142857,0.32142857142857,0
-7.919594129256e-06,0.00011582362733327,278,81.503069734434,0.60714285714286,0.32142857142857,0
-1.4683737980629e-05,0.00011580176290869,279,83.184643720923,0.64285714285714,0.32142857142857,0
-2.5258677255026e-05,0.00011867990699557,280,83.5,0.67857142857143,0.32142857142857,0
-4.4437184148901e-05,0.00012168840538823,281,83.5,0.71428571428571,0.32142857142857,0
-6.8132684065443e-05,0.00013095520964477,282,83.5,0.75,0.32142857142857,0
-9.4593203938406e-05,0.00014457407391754,283,83.5,0.78571428571429,0.32142857142857,0
-0.0001217865707748,0.00016316425717861,284,83.5,0.82142857142857,0.32142857142857,0
-0.00014871008655592,0.00018544904961517,285,83.5,0.85714285714286,0.32142857142857,0
-0.00017511831349764,0.000212125849079,286,83.5,0.89285714285714,0.32142857142857,0
-0.00019770796995817,0.00023875837121482,287,83.5,0.92857142857143,0.32142857142857,0
-0.00022003675998831,0.00026560537592328,288,83.5,0.96428571428571,0.32142857142857,0
-0.00024190257393685,0.00029296351929726,289,83.5,1,0.32142857142857,0
0.00025959263866502,0.00034299832319999,290,83.5,0.035714285714286,0.35714285714286,0
0.00028637773456149,0.00036871750572233,291,83.5,0,0.35714285714286,0
0.00023294717917885,0.00031768362816968,292,83.5,0.071428571428571,0.35714285714286,0
0.00020654699190291,0.00029287356189265,293,83.5,0.10714285714286,0.35714285714286,0
0.00018049134901159,0.0002686745652206,294,83.5,0.14285714285714,0.35714285714286,0
0.00015488290842015,0.00024517016894974,295,83.5,0.17857142857143,0.35714285714286,0
0.0001298161919661,0.00022246366009405,296,83.5,0.21428571428571,0.35714285714286,0
0.00010552905758994,0.00020082436305635,297,83.5,0.25,0.35714285714286,0
8.2617693178062e-05,0.00018093252097464,298,83.5,0.28571428571429,0.35714285714286,0
6.2158369852036e-05,0.00016396282727805,299,83.5,0.32142857142857,0.35714285714286,0
4.5334983505692e-05,0.00015102897550734,300,83.5,0.35714285714286,0.35714285714286,0
3.2619172375625e-05,0.00014254245553146,301,83.5,0.39285714285714,0.35714285714286,0
2.3486933161457e-05,0.0001377525550104,302,83.411218121208,0.42857142857143,0.35714285714286,0
1.6540418879e-05,0.00013532729746107,303,82.792572630464,0.46428571428571,0.35714285714286,0
1.0282168192517e-05,0.00013384083404182,304,82.104750139865,0.5,0.35714285714286,0
4.1532602138215e-06,0.00013266414139537,305,81.966432667909,0.53571428571429,0.35714285714286,0
-2.1113818901467e-06,0.00013179323707688,306,82.631367276546,0.57142857142857,0.35714285714286,0
-9.4579946655135e-06,0.0001322281811745,307,83.388330239247,0.60714285714286,0.35714285714286,0
-1.987423525543e-05,0.00013603882230979,308,83.5,0.64285714285714,0.35714285714286,0
-3.4991426444667e-05,0.00014421940743427,309,83.5,0.67857142857143,0.35714285714286,0
-5.5129403514201e-05,0.00015539044245964,310,83.5,0.71428571428571,0.35714285714286,0
-8.1637030910722e-05,0.00016782622248166,311,83.5,0.75,0.35714285714286,0
-0.00011089163349281,0.00018355169494127,312,83.5,0.78571428571429,0.35714285714286,0
-0.00014134697472522,0.0002020093550846,313,83.5,0.82142857142857,0.35714285714286,0
-0.00017155428316587,0.00022405805097097,314,83.5,0.85714285714286,0.35714285714286,0
-0.00019891485536622,0.0002472319093573,315,83.5,0.89285714285714,0.35714285714286,0
-0.00022415541504476,0.00027163103539539,316,83.5,0.92857142857143,0.35714285714286,0
-0.00024709360985623,0.00029778750906997,317,83.5,0.96428571428571,0.35714285714286,0
-0.00026884357135652,0.00032417760304748,318,83.5,1,0.35714285714286,0
0.00028518046715935,0.00037995826406393,319,83.5,0.035714285714286,0.39285714285714,0
0.0003122821587754,0.00040572141953844,320,83.5,0,0.39285714285714,0
0.00025812226203364,0.000354500458267,321,83.5,0.071428571428571,0.39285714285714,0
0.00023119928247411,0.00032944529442478,322,83.5,0.10714285714286,0.39285714285714,0
0.00020451680853,0.00030488912070239,323,83.5,0.14285714285714,0.39285714285714,0
0.00017817588830206,0.00028092831347872,324,83.5,0.17857142857143,0.39285714285714,0
0.00015228175986613,0.00025765184655984,325,83.5,0.21428571428571,0.39285714285714,0
0.00012696639411979,0.00023518605906467,326,83.5,0.25,0.39285714285714,0
0.00010252374194504,0.00021385554229458,327,83.5,0.28571428571429,0.39285714285714,0
7.9598005807967e-05,0.00019435712500831,328,83.5,0.32142857142857,0.39285714285714,0
5.9188690592712e-05,0.00017778414021842,329,83.5,0.35714285714286,0.39285714285714,0
4.2318684013941e-05,0.00016511216349058,330,83.5,0.39285714285714,0.39285714285714,0
2.9317718412894e-05,0.00015665873417025,331,83.5,0.42857142857143,0.39285714285714,0
1.9586897699403e-05,0.00015182199809453,332,83.5,0.46428571428571,0.39285714285714,0
1.1889802894239e-05,0.00014931496649646,333,83.5,0.5,0.39285714285714,0
4.7675576685217e-06,0.00014829222223151,334,83.5,0.53571428571429,0.39285714285714,0
-3.5050939443394e-06,0.00014892508296348,335,83.5,0.57142857142857,0.39285714285714,0
-1.4611340103999e-05,0.0001526911137326,336,83.5,0.60714285714286,0.39285714285714,0
-2.969279042214e-05,0.00016073751710849,337,83.5,0.64285714285714,0.39285714285714,0
-4.8381448753951e-05,0.00017332789798173,338,83.5,0.67857142857143,0.39285714285714,0
-7.1197856813089e-05,0.00018925394425448,339,83.5,0.71428571428571,0.39285714285714,0
-9.7513675560294e-05,0.00020674635380338,340,83.5,0.75,0.39285714285714,0
-0.00012821819647964,0.00022478924165924,341,83.5,0.78571428571429,0.39285714285714,0
-0.00016050484966909,0.00024377899560739,342,83.5,0.82142857142857,0.39285714285714,0
-0.00019163924605461,0.00026376856304276,343,83.5,0.85714285714286,0.39285714285714,0
-0.00022093881830996,0.00028445509223915,344,83.5,0.89285714285714,0.39285714285714,0
-0.00024791724435554,0.00030672207037147,345,83.5,0.92857142857143,0.39285714285714,0
-0.00027265668972049,0.00033036208463006,346,83.5,0.96428571428571,0.39285714285714,0
-0.00029458189973941,0.00035503177236119,347,83.5,1,0.39285714285714,0
0.00031081242087482,0.00041724032651504,348,83.5,0.035714285714286,0.42857142857143,0
0.00033814043042053,0.00044295773269522,349,83.5,0,0.42857142857143,0
0.00028343714690688,0.00039174146030894,350,83.5,0.071428571428571,0.42857142857143,0
0.00025610434645863,0.00036654570477335,351,83.5,0.10714285714286,0.42857142857143,0
0.00022890958025619,0.00034174366275645,352,83.5,0.14285714285714,0.42857142857143,0
0.00020195924427368,0.00031742639663043,353,83.5,0.17857142857143,0.42857142857143,0
0.00017536105098,0.00029368073427366,354,83.5,0.21428571428571,0.42857142857143,0
0.00014922979693079,0.0002706006849584,355,83.5,0.25,0.42857142857143,0
0.00012372695637192,0.00024834090261246,356,83.5,0.28571428571429,0.42857142857143,0
9.917259360982e-05,0.00022727857457792,357,83.5,0.32142857142857,0.42857142857143,0
7.6208799075805e-05,0.00020812799419993,358,83.5,0.35714285714286,0.42857142857143,0
5.5747617648616e-05,0.00019190793339044,359,83.5,0.39285714285714,0.42857142857143,0
3.864650237974e-05,0.00017954346363166,360,83.5,0.42857142857143,0.42857142857143,0
2.5113883272777e-05,0.00017136752668125,361,83.5,0.46428571428571,0.42857142857143,0
1.4182797824204e-05,0.00016716461810173,362,83.5,0.5,0.42857142857143,0
3.7945403480804e-06,0.00016654909495467,363,83.5,0.53571428571429,0.42857142857143,0
-8.2356342711965e-06,0.00017006673517332,364,83.5,0.57142857142857,0.42857142857143,0
-2.3854995461436e-05,0.00017773324235659,365,83.5,0.60714285714286,0.42857142857143,0
-4.2935269722533e-05,0.00018967877421887,366,83.5,0.64285714285714,0.42857142857143,0
-6.5347672253993e-05,0.00020528486072197,367,83.5,0.67857142857143,0.42857142857143,0
-8.9749060221578e-05,0.00022462080152593,368,83.5,0.71428571428571,0.42857142857143,0
-0.00011766259612048,0.00024555433406723,369,83.5,0.75,0.42857142857143,0
-0.00014695561877252,0.00026619105762972,370,83.5,0.78571428571429,0.42857142857143,0
-0.00017862704361951,0.00028650910272303,371,83.5,0.82142857142857,0.42857142857143,0
-0.00021054573378184,0.00030434313568256,372,83.5,0.85714285714286,0.42857142857143,0
-0.00024060341579226,0.00032349350251941,373,83.5,0.89285714285714,0.42857142857143,0
-0.00026932317242777,0.00034353604235804,374,83.5,0.92857142857143,0.42857142857143,0
-0.00029516233606722,0.00036421006418,375,83.5,0.96428571428571,0.42857142857143,0
-0.00031896273256082,0.00038673357583539,376,83.5,1,0.42857142857143,0
0.00033639648171894,0.00045475498990221,377,83.5,0.035714285714286,0.46428571428571,0
0.0003638664479048,0.0004803378811101,378,83.5,0,0.46428571428571,0
0.00030879646072145,0.00042930293677314,379,83.5,0.071428571428571,0.46428571428571,0
0.0002811535045092,0.00040406180519269,380,83.5,0.10714285714286,0.46428571428571,0
0.00025356255200743,0.0003791114715557,381,83.5,0.14285714285714,0.46428571428571,0
0.00022612687531318,0.0003545331956842,382,83.5,0.17857142857143,0.46428571428571,0
0.00019895714103797,0.00033041127418205,383,83.5,0.21428571428571,0.46428571428571,0
0.00017216212137171,0.00030683302349876,384,83.5,0.25,0.46428571428571,0
0.00014584991959123,0.00028391654033765,385,83.5,0.28571428571429,0.46428571428571,0
0.00012018187452826,0.00026186634115172,386,83.5,0.32142857142857,0.46428571428571,0
9.5468893963165e-05,0.00024111232382867,387,83.5,0.35714285714286,0.46428571428571,0
7.2282502210233e-05,0.00022241097420101,388,83.5,0.39285714285714,0.46428571428571,0
5.135253905606e-05,0.00020680306154149,389,83.5,0.42857142857143,0.46428571428571,0
3.3075285207163e-05,0.00019549786587661,390,83.5,0.46428571428571,0.46428571428571,0
1.6899147270176e-05,0.0001896254734614,391,83.5,0.5,0.46428571428571,0
1.0519708265702e-06,0.00018993287929053,392,83.5,0.53571428571429,0.46428571428571,0
-1.6468023404652e-05,0.00019580364688111,393,83.5,0.57142857142857,0.46428571428571,0
-3.6151989585404e-05,0.00020718997462969,394,83.5,0.60714285714286,0.46428571428571,0
-5.9127856206788e-05,0.00022200213001171,395,83.5,0.64285714285714,0.46428571428571,0
-8.4093717857389e-05,0.00024035866027252,396,83.5,0.67857142857143,0.46428571428571,0
-0.00011183782188587,0.00026140445397974,397,83.5,0.71428571428571,0.46428571428571,0
-0.00013866822303736,0.00028393010122384,398,83.5,0.75,0.46428571428571,0
-0.00016847677202992,0.00030681255492361,399,83.5,0.78571428571429,0.46428571428571,0
-0.0001973758517564,0.00032677612445636,400,83.5,0.82142857142857,0.46428571428571,0
-0.00022754318846794,0.00034646218401978,401,83.5,0.85714285714286,0.46428571428571,0
-0.00025939258570751,0.00036335230704665,402,83.5,0.89285714285714,0.46428571428571,0
-0.00028763004634067,0.00038097005470204,403,83.5,0.92857142857143,0.46428571428571,0
-0.00031530016973397,0.00040027492579953,404,83.5,0.96428571428571,0.46428571428571,0
-0.0003405357619303,0.00041969813828488,405,83.5,1,0.46428571428571,0
0.0003618486893676,0.00049241217469335,406,83.5,0.035714285714286,0.5,0
0.00038937210696213,0.00051777525453882,407,83.5,0,0.5,0
0.00033411332750491,0.00046708999242544,408,83.5,0.071428571428571,0.5,0
0.00030625912055753,0.00044188479661421,409,83.5,0.10714285714286,0.5,0
0.0002783829923802,0.00041686821209858,410,83.5,0.14285714285714,0.5,0
0.00025058768202033,0.00039211356897187,411,83.5,0.17857142857143,0.5,0
0.00022297652216366,0.00036770196753102,412,83.5,0.21428571428571,0.5,0
0.00019564407844796,0.00034373200600283,413,83.5,0.25,0.5,0
0.00016866999169635,0.00032032218943048,414,83.5,0.28571428571429,0.5,0
0.0001421209740038,0.0002976437150036,415,83.5,0.32142857142857,0.5,0
0.00011609146468166,0.00027599490255201,416,83.5,0.35714285714286,0.5,0
9.0743193564602e-05,0.00025595821060484,417,83.5,0.39285714285714,0.5,0
6.6237405723986e-05,0.00023861720734881,418,83.5,0.42857142857143,0.5,0
4.2586131821165e-05,0.00022560906049219,419,83.5,0.46428571428571,0.5,0
1.9539504685504e-05,0.00021880856845757,420,83.5,0.5,0.5,0
-3.1907247698714e-06,0.00021942359340989,421,83.5,0.53571428571429,0.5,0
-2.6505746702932e-05,0.00022736697082175,422,83.5,0.57142857142857,0.5,0
-5.122293257157e-05,0.0002398619499911,423,83.5,0.60714285714286,0.5,0
-7.6341813674124e-05,0.0002576429417453,424,83.5,0.64285714285714,0.5,0
-0.00010553034493955,0.00027849019577638,425,83.5,0.67857142857143,0.5,0
-0.00013332650380738,0.00029915938668097,426,83.5,0.71428571428571,0.5,0
-0.0001601134558526,0.00031943384291991,427,83.5,0.75,0.5,0
-0.00018903738854716,0.00033925471397129,428,83.5,0.78571428571429,0.5,0
-0.00021733229859576,0.00036048381182482,429,83.5,0.82142857142857,0.5,0
-0.0002456004570324,0.00038023170892895,430,83.5,0.85714285714286,0.5,0
-0.00027658799434924,0.00040155356891504,431,83.5,0.89285714285714,0.5,0
-0.00030556014416949,0.00041979209346042,432,83.5,0.92857142857143,0.5,0
-0.00033304083222454,0.00043687684452453,433,83.5,0.96428571428571,0.5,0
-0.00036006950684517,0.00045537647527576,434,83.5,1,0.5,0
0.0003870859890902,0.00053011930024569,435,83.5,0.035714285714286,0.53571428571429,0
0.00041456821226045,0.00055517557699872,436,83.5,0,0.53571428571429,0
0.00035931179045914,0.0005050053848255,437,83.5,0.071428571428571,0.53571428571429,0
0.00033134816030141,0.00047990681727035,438,83.5,0.10714285714286,0.53571428571429,0
0.00030329873980559,0.00045489258009985,439,83.5,0.14285714285714,0.53571428571429,0
0.00027526202171955,0.00043003599319765,440,83.5,0.17857142857143,0.53571428571429,0
0.00024732439204089,0.00040542759377639,441,83.5,0.21428571428571,0.53571428571429,0
0.00021955134113459,0.00038118344159564,442,83.5,0.25,0.53571428571429,0
0.00019197252414915,0.00035745793317791,443,83.5,0.28571428571429,0.53571428571429,0
0.00016456137995248,0.00033446325760359,444,83.5,0.32142857142857,0.53571428571429,0
0.00013719679053701,0.0003125474763397,445,83.5,0.35714285714286,0.53571428571429,0
0.00010960504254149,0.00029236731640135,446,83.5,0.39285714285714,0.53571428571429,0
8.1387976671212e-05,0.00027507928491,447,83.5,0.42857142857143,0.53571428571429,0
5.2198705144367e-05,0.00026230125786428,448,83.5,0.46428571428571,0.53571428571429,0
2.2149489954835e-05,0.00025561222032536,449,83.5,0.5,0.53571428571429,0
-8.1273428688002e-06,0.00025600362729003,450,83.5,0.53571428571429,0.53571428571429,0
-3.7280113127492e-05,0.00026352704286091,451,83.5,0.57142857142857,0.53571428571429,0
-6.5846254881997e-05,0.00027742949123737,452,83.5,0.60714285714286,0.53571428571429,0
-9.4916089967258e-05,0.00029390030691386,453,83.5,0.64285714285714,0.53571428571429,0
-0.00012559446749086,0.00031131871695627,454,83.5,0.67857142857143,0.53571428571429,0
-0.00015354235099126,0.00033093965677604,455,83.5,0.71428571428571,0.53571428571429,0
-0.00018153559930926,0.00035154604037726,456,83.5,0.75,0.53571428571429,0
-0.00020901405960942,0.00037243429121574,457,83.5,0.78571428571429,0.53571428571429,0
-0.00023726727190915,0.0003929932586156,458,83.5,0.82142857142857,0.53571428571429,0
-0.00026668330215698,0.00041439135048348,459,83.5,0.85714285714286,0.53571428571429,0
-0.00029410826183231,0.00043483034960781,460,83.5,0.89285714285714,0.53571428571429,0
-0.00032480598656824,0.0004552784158853,461,83.5,0.92857142857143,0.53571428571429,0
-0.00035049005782387,0.00047450658746796,462,83.5,0.96428571428571,0.53571428571429,0
-0.00038032396612393,0.00049474831654847,463,83.5,1,0.53571428571429,0
0.00041202724338023,0.00056777367145946,464,83.5,0.035714285714286,0.57142857142857,0
0.00043936300855223,0.00059243756721569,465,83.5,0,0.57142857142857,0
0.00038432238852574,0.00054294287386481,466,83.5,0.071428571428571,0.57142857142857,0
0.00035636068701058,0.00051801580697308,467,83.5,0.10714285714286,0.57142857142857,0
0.0003282480423396,0.00049306790032434,468,83.5,0.14285714285714,0.57142857142857,0
0.00030007099559233,0.00046818918383988,469,83.5,0.17857142857143,0.57142857142857,0
0.00027188386525595,0.00044349669134041,470,83.5,0.21428571428571,0.57142857142857,0
0.00024369398631749,0.00041915105383578,471,83.5,0.25,0.57142857142857,0
0.00021543734441306,0.00039537743373521,472,83.5,0.28571428571429,0.57142857142857,0
0.0001869267584057,0.00037251559584641,473,83.5,0.32142857142857,0.57142857142857,0
0.00015777221854875,0.00035110881433218,474,83.5,0.35714285714286,0.57142857142857,0
0.00012737323070114,0.00033199795296834,475,83.5,0.39285714285714,0.57142857142857,0
9.5093671180586e-05,0.00031628855993643,476,83.5,0.42857142857143,0.57142857142857,0
6.0701382411737e-05,0.00030513819168649,477,83.5,0.46428571428571,0.57142857142857,0
2.4628672024176e-05,0.00029942161453037,478,83.5,0.5,0.57142857142857,0
-1.1855618809623e-05,0.00029944503059873,479,83.5,0.53571428571429,0.57142857142857,0
-4.7224725248626e-05,0.00030498651213384,480,83.5,0.57142857142857,0.57142857142857,0
-7.7692369784451e-05,0.00031513686573955,481,83.5,0.60714285714286,0.57142857142857,0
-0.00011234035849354,0.00032910736266206,482,83.5,0.64285714285714,0.57142857142857,0
-0.00014226157228691,0.00034565928931827,483,83.5,0.67857142857143,0.57142857142857,0
-0.00017318177950156,0.0003645975800744,484,83.5,0.71428571428571,0.57142857142857,0
-0.00020231545958264,0.00038392083734931,485,83.5,0.75,0.57142857142857,0
-0.00023022885515475,0.00040454935119513,486,83.5,0.78571428571429,0.57142857142857,0
-0.00025821857306764,0.00042604126902394,487,83.5,0.82142857142857,0.57142857142857,0
-0.0002857030191044,0.00044737638965666,488,83.5,0.85714285714286,0.57142857142857,0
-0.00031566390922115,0.00046816333800576,489,83.5,0.89285714285714,0.57142857142857,0
-0.00034407817749031,0.00049021135865147,490,83.5,0.92857142857143,0.57142857142857,0
-0.00037216102865691,0.00051320792211705,491,83.5,0.96428571428571,0.57142857142857,0
-0.00040165071691111,0.00053559101709505,492,83.5,1,0.57142857142857,0
0.00043659520521635,0.00060525979421489,493,83.5,0.035714285714286,0.60714285714286,0
0.00046366915648836,0.00062945123178786,494,83.5,0,0.60714285714286,0
0.00040908092041207,0.00058078326213783,495,83.5,0.071428571428571,0.60714285714286,0
0.00038123839622348,0.00055609610608396,496,83.5,0.10714285714286,0.60714285714286,0
0.00035316150873184,0.00053129333762061,497,83.5,0.14285714285714,0.60714285714286,0
0.00032490554815032,0.00050650345050574,498,83.5,0.17857142857143,0.60714285714286,0
0.00029646440101754,0.00048190281582489,499,83.5,0.21428571428571,0.60714285714286,0
0.00026774507689824,0.00045773621302884,500,83.5,0.25,0.60714285714286,0
0.00023852582038839,0.00043436253346079,501,83.5,0.28571428571429,0.60714285714286,0
0.00020839817236818,0.00041231654129211,502,83.5,0.32142857142857,0.60714285714286,0
0.00017675893752586,0.00039235080133389,503,83.5,0.35714285714286,0.60714285714286,0
0.00014293458839317,0.00037534838020918,504,83.5,0.39285714285714,0.60714285714286,0
0.00010650181084088,0.0003621164530071,505,83.5,0.42857142857143,0.60714285714286,0
6.7573955618432e-05,0.00035314149553358,506,83.5,0.46428571428571,0.60714285714286,0
2.7042131864333e-05,0.00034854502658205,507,83.5,0.5,0.60714285714286,0
-1.3678439495737e-05,0.00034802592242283,508,83.5,0.53571428571429,0.60714285714286,0
-5.2338977237523e-05,0.00035084460849833,509,83.5,0.57142857142857,0.60714285714286,0
-8.8939829314247e-05,0.00035661700505597,510,83.5,0.60714285714286,0.60714285714286,0
-0.00012435109075226,0.00036683156019099,511,83.5,0.64285714285714,0.60714285714286,0
-0.0001598302849259,0.00038242673492365,512,83.5,0.67857142857143,0.60714285714286,0
-0.00019094192448573,0.00039886154041993,513,83.5,0.71428571428571,0.60714285714286,0
-0.00022121366605349,0.00041819794555683,514,83.5,0.75,0.60714285714286,0
-0.0002514528619261,0.00043731701834876,515,83.5,0.78571428571429,0.60714285714286,0
-0.00027904194710283,0.00045797418165319,516,83.5,0.82142857142857,0.60714285714286,0
-0.00030762894538504,0.00048040432312795,517,83.5,0.85714285714286,0.60714285714286,0
-0.00033844983250317,0.00050514486624897,518,83.5,0.89285714285714,0.60714285714286,0
-0.0003663070915187,0.00052917157112522,519,83.5,0.92857142857143,0.60714285714286,0
-0.00039554467650013,0.00055191702118407,520,83.5,0.96428571428571,0.60714285714286,0
-0.00042477455365729,0.00057574755079026,521,83.5,1,0.60714285714286,0
0.00046071887720894,0.00064245028863798,522,83.5,0.035714285714286,0.64285714285714,0
0.00048740817186962,0.00066609970272649,523,83.5,0,0.64285714285714,0
0.00043352064615007,0.00061840061738878,524,83.5,0.071428571428571,0.64285714285714,0
0.00040590497528921,0.00059404132163426,525,83.5,0.10714285714286,0.64285714285714,0
0.00037792564020213,0.00056950757050352,526,83.5,0.14285714285714,0.64285714285714,0
0.00034957064385371,0.00054499676190261,527,83.5,0.17857142857143,0.64285714285714,0
0.00032073245795596,0.00052078407707751,528,83.5,0.21428571428571,0.64285714285714,0
0.00029116995317433,0.00049725318562179,529,83.5,0.25,0.64285714285714,0
0.00026047007608327,0.00047494070450396,530,83.5,0.28571428571429,0.64285714285714,0
0.00022805768289195,0.00045455527920198,531,83.5,0.32142857142857,0.64285714285714,0
0.00019331073229344,0.00043688937292174,532,83.5,0.35714285714286,0.64285714285714,0
0.00015580680327344,0.00042261873786997,533,83.5,0.39285714285714,0.64285714285714,0
0.00011555181576473,0.00041204871740976,534,83.5,0.42857142857143,0.64285714285714,0
7.3143058817487e-05,0.00040505858321415,535,83.5,0.46428571428571,0.64285714285714,0
2.9672166338362e-05,0.00040110997926923,536,83.5,0.5,0.64285714285714,0
-1.3286886338188e-05,0.00039959857359831,537,83.5,0.53571428571429,0.64285714285714,0
-5.5258557268954e-05,0.00040035542523861,538,83.5,0.57142857142857,0.64285714285714,0
-9.6105525642119e-05,0.00040513892766767,539,83.5,0.60714285714286,0.64285714285714,0
-0.00013408254801527,0.00041190349964723,540,83.5,0.64285714285714,0.64285714285714,0
-0.00017282649937694,0.00042073773389342,541,83.5,0.67857142857143,0.64285714285714,0
-0.00020774047005977,0.00043568074332584,542,83.5,0.71428571428571,0.64285714285714,0
-0.0002399790382552,0.00045287172705881,543,83.5,0.75,0.64285714285714,0
-0.00027239220031171,0.00047448648952351,544,83.5,0.78571428571429,0.64285714285714,0
-0.00030142614513265,0.00049715814446752,545,83.5,0.82142857142857,0.64285714285714,0
-0.00033199718053625,0.00052082773458247,546,83.5,0.85714285714286,0.64285714285714,0
-0.00036101914976243,0.00054437933886721,547,83.5,0.89285714285714,0.64285714285714,0
-0.00039031608630086,0.00056748472650164,548,83.5,0.92857142857143,0.64285714285714,0
-0.00041902053563466,0.00059158530332836,549,83.5,0.96428571428571,0.64285714285714,0
-0.00044831866689711,0.00061482739015714,550,83.5,1,0.64285714285714,0
0.00048433110129123,0.0006792174165666,551,83.5,0.035714285714286,0.67857142857143,0
0.00051051789785363,0.00070226320778155,552,83.5,0,0.67857142857143,0
0.00045755621819669,0.00065568194781054,553,83.5,0.071428571428571,0.67857142857143,0
0.00043023126787221,0.00063178581826921,554,83.5,0.10714285714286,0.67857142857143,0
0.00040232683144397,0.00060773522681219,555,83.5,0.14285714285714,0.67857142857143,0
0.00037371862616142,0.00058382797703384,556,83.5,0.17857142857143,0.67857142857143,0
0.00034415706102965,0.00056047627977644,557,83.5,0.21428571428571,0.67857142857143,0
0.00031323954554117,0.00053822782182678,558,83.5,0.25,0.67857142857143,0
0.0002804280862029,0.00051776368474748,559,83.5,0.28571428571429,0.67857142857143,0
0.00024515791207505,0.00049981246870587,560,83.5,0.32142857142857,0.67857142857143,0
0.00020704655891459,0.00048497742662974,561,83.5,0.35714285714286,0.67857142857143,0
0.00016609541042545,0.0004735113439452,562,83.5,0.39285714285714,0.67857142857143,0
0.00012279600903339,0.00046523466903975,563,83.5,0.42857142857143,0.67857142857143,0
7.8030729123085e-05,0.00045953270996869,564,83.5,0.46428571428571,0.67857142857143,0
3.2879483955024e-05,0.000455719719883,565,83.5,0.5,0.67857142857143,0
-1.2196115027562e-05,0.00045347243461819,566,83.5,0.53571428571429,0.67857142857143,0
-5.6969048825801e-05,0.00045377831786714,567,83.5,0.57142857142857,0.67857142857143,0
-0.00010006769604945,0.00045608674401072,568,83.5,0.60714285714286,0.67857142857143,0
-0.00014223641170105,0.00046170923641934,569,83.5,0.64285714285714,0.67857142857143,0
-0.00018244479360591,0.00047025293975711,570,83.5,0.67857142857143,0.67857142857143,0
-0.00022180059046922,0.0004809503561217,571,83.5,0.71428571428571,0.67857142857143,0
-0.00025878779454101,0.00049737422126388,572,83.5,0.75,0.67857142857143,0
-0.00029238601217725,0.00051609380822048,573,83.5,0.78571428571429,0.67857142857143,0
-0.00032494113130428,0.00053764201728073,574,83.5,0.82142857142857,0.67857142857143,0
-0.00035479764484715,0.00056066672987387,575,83.5,0.85714285714286,0.67857142857143,0
-0.00038446203959722,0.000583498730517,576,83.5,0.89285714285714,0.67857142857143,0
-0.00041367320438256,0.00060693141925081,577,83.5,0.92857142857143,0.67857142857143,0
-0.00044293458197804,0.00063036212956928,578,83.5,0.96428571428571,0.67857142857143,0
-0.00047162537210178,0.00065416671715432,579,83.5,1,0.67857142857143,0
0.00050735538569687,0.00071545811964165,580,83.5,0.035714285714286,0.71428571428571,0
0.00053294623410632,0.00073782587002568,581,83.5,0,0.71428571428571,0
0.00048105319061923,0.00069256614323611,582,83.5,0.071428571428571,0.71428571428571,0
0.00045398488690589,0.00066935825748334,583,83.5,0.10714285714286,0.71428571428571,0
0.00042599400082984,0.00064613989272765,584,83.5,0.14285714285714,0.71428571428571,0
0.00039680941086265,0.00062333433963744,585,83.5,0.17857142857143,0.71428571428571,0
0.0003660343176788,0.00060149202153928,586,83.5,0.21428571428571,0.71428571428571,0
0.00033317241515281,0.00058127531029106,587,83.5,0.25,0.71428571428571,0
0.0002977233947045,0.00056336910091467,588,83.5,0.28571428571429,0.71428571428571,0
0.00025935642239503,0.00054832584542627,589,83.5,0.32142857142857,0.71428571428571,0
0.0002180855505462,0.00053637283734105,590,83.5,0.35714285714286,0.71428571428571,0
0.00017435282987396,0.00052733241515291,591,83.5,0.39285714285714,0.71428571428571,0
0.00012893363674403,0.00052063644592709,592,83.5,0.42857142857143,0.71428571428571,0
8.268372923973e-05,0.00051562818074211,593,83.5,0.46428571428571,0.71428571428571,0
3.6033994158412e-05,0.00051188901043251,594,83.5,0.5,0.71428571428571,0
-1.0859783061261e-05,0.00050979172342732,595,83.5,0.53571428571429,0.71428571428571,0
-5.724519750565e-05,0.00050906906083741,596,83.5,0.57142857142857,0.71428571428571,0
-0.00010333077271534,0.00051055687970485,597,83.5,0.60714285714286,0.71428571428571,0
-0.00014810876968292,0.00051468630867361,598,83.5,0.64285714285714,0.71428571428571,0
-0.00019161653315211,0.00052154310596456,599,83.5,0.67857142857143,0.71428571428571,0
-0.00023374104064196,0.00053164253015464,600,83.5,0.71428571428571,0.71428571428571,0
-0.00027384961651982,0.00054422438325923,601,83.5,0.75,0.71428571428571,0
-0.00031124988362805,0.00056075830957926,602,83.5,0.78571428571429,0.71428571428571,0
-0.00034533571904843,0.00057980248276976,603,83.5,0.82142857142857,0.71428571428571,0
-0.00037737340866468,0.00060073916993347,604,83.5,0.85714285714286,0.71428571428571,0
-0.00040749686560071,0.00062327699630282,605,83.5,0.89285714285714,0.71428571428571,0
-0.00043716588082133,0.00064624442057403,606,83.5,0.92857142857143,0.71428571428571,0
-0.00046629288899238,0.00066955273584168,607,83.5,0.96428571428571,0.71428571428571,0
-0.00049508048715253,0.00069262631891227,608,83.5,1,0.71428571428571,0
0.00052966774384779,0.00075112918957549,609,83.5,0.035714285714286,0.75,0
0.00055462096608842,0.00077268853411208,610,83.5,0,0.75,0
0.00050378051325639,0.00072910199111632,611,83.5,0.071428571428571,0.75,0
0.00047678396736574,0.00070693561809516,612,83.5,0.10714285714286,0.75,0
0.00044837662810065,0.00068505687658972,613,83.5,0.14285714285714,0.75,0
0.00041814703189846,0.00066400257490118,614,83.5,0.17857142857143,0.75,0
0.00038561840777641,0.00064439948725867,615,83.5,0.21428571428571,0.75,0
0.00035034205436302,0.00062688620307786,616,83.5,0.25,0.75,0
0.00031204396531838,0.00061197472402041,617,83.5,0.28571428571429,0.75,0
0.00027076662859851,0.00059988360503626,618,83.5,0.32142857142857,0.75,0
0.00022692719384349,0.00059045736571449,619,83.5,0.35714285714286,0.75,0
0.00018122616487123,0.00058319662297512,620,83.5,0.39285714285714,0.75,0
0.00013440655205316,0.00057751071819448,621,83.5,0.42857142857143,0.75,0
8.6913403752717e-05,0.00057298385218673,622,83.5,0.46428571428571,0.75,0
3.8922546325953e-05,0.00056969083463004,623,83.5,0.5,0.75,0
-9.1605320041232e-06,0.00056744390853179,624,83.5,0.53571428571429,0.75,0
-5.7443518628513e-05,0.00056662975847778,625,83.5,0.57142857142857,0.75,0
-0.000105392429366,0.00056753781611876,626,83.5,0.60714285714286,0.75,0
-0.00015282376639043,0.0005704798813324,627,83.5,0.64285714285714,0.75,0
-0.00019915780728244,0.00057615140126544,628,83.5,0.67857142857143,0.75,0
-0.00024374761477267,0.00058426381314815,629,83.5,0.71428571428571,0.75,0
-0.00028643365787978,0.00059491586534525,630,83.5,0.75,0.75,0
-0.00032657307823074,0.00060804600442772,631,83.5,0.78571428571429,0.75,0
-0.0003636850734953,0.00062415482308722,632,83.5,0.82142857142857,0.75,0
-0.00039784459527123,0.00064284520942573,633,83.5,0.85714285714286,0.75,0
-0.00042990007170131,0.00066363728169808,634,83.5,0.89285714285714,0.75,0
-0.00046009711956018,0.00068586570744938,635,83.5,0.92857142857143,0.75,0
-0.00048934072340113,0.00070846614876867,636,83.5,0.96428571428571,0.75,0
-0.00051782140966274,0.00073111724971546,637,83.5,1,0.75,0
0.00055103749573292,0.00078629170991031,638,83.5,0.035714285714286,0.78571428571429,0
0.00057539794666795,0.00080678985678788,639,83.5,0,0.78571428571429,0
0.00052536391934446,0.00076549376269097,640,83.5,0.071428571428571,0.78571428571429,0
0.00049808714051895,0.00074486988699359,641,83.5,0.10714285714286,0.78571428571429,0
0.00046879306745873,0.00072496212514783,642,83.5,0.14285714285714,0.78571428571429,0
0.00043700895019884,0.00070635783472461,643,83.5,0.17857142857143,0.78571428571429,0
0.0004023078434538,0.00068963390217034,644,83.5,0.21428571428571,0.78571428571429,0
0.00036444620579149,0.00067524274314142,645,83.5,0.25,0.78571428571429,0
0.00032348715250636,0.00066338298370309,646,83.5,0.28571428571429,0.78571428571429,0
0.00027983915219497,0.00065392670001049,647,83.5,0.32142857142857,0.78571428571429,0
0.00023415952808365,0.00064645092349071,648,83.5,0.35714285714286,0.78571428571429,0
0.0001871317597374,0.00064043988011866,649,83.5,0.39285714285714,0.78571428571429,0
0.00013921488560957,0.00063550600470627,650,83.5,0.42857142857143,0.78571428571429,0
9.0628272424793e-05,0.00063159054023126,651,83.5,0.46428571428571,0.78571428571429,0
4.1638960096383e-05,0.00062856822841248,652,83.5,0.5,0.78571428571429,0
-7.7848421753461e-06,0.00062661401414391,653,83.5,0.53571428571429,0.78571428571429,0
-5.7389822821815e-05,0.00062586568307884,654,83.5,0.57142857142857,0.78571428571429,0
-0.00010707806417309,0.0006264894708871,655,83.5,0.60714285714286,0.78571428571429,0
-0.00015643974964089,0.00062886926003313,656,83.5,0.64285714285714,0.78571428571429,0
-0.00020486395594865,0.00063307084264024,657,83.5,0.67857142857143,0.78571428571429,0
-0.00025176310585406,0.00063939229867906,658,83.5,0.71428571428571,0.78571428571429,0
-0.00029657492250317,0.00064779286058271,659,83.5,0.75,0.78571428571429,0
-0.0003391002427937,0.00065833353440169,660,83.5,0.78571428571429,0.78571428571429,0
-0.00037903345398279,0.00067136464407005,661,83.5,0.82142857142857,0.78571428571429,0
-0.00041609648518464,0.0006872778907732,662,83.5,0.85714285714286,0.78571428571429,0
-0.00045024546539347,0.00070568829508599,663,83.5,0.89285714285714,0.78571428571429,0
-0.00048196400263776,0.00072596931023302,664,83.5,0.92857142857143,0.78571428571429,0
-0.00051164385278402,0.00074741653548471,665,83.5,0.96428571428571,0.78571428571429,0
-0.0005399633793551,0.00076909622341188,666,83.5,1,0.78571428571429,0
0.00057106664306763,0.0008211390551742,667,83.5,0.035714285714286,0.82142857142857,0
0.00059498223644035,0.00084013259124285,668,83.5,0,0.82142857142857,0
0.00054526889544319,0.00080210542892391,669,83.5,0.071428571428571,0.82142857142857,0
0.00051724093008546,0.00078364732422029,670,83.5,0.10714285714286,0.82142857142857,0
0.00048655637991356,0.0007663662621647,671,83.5,0.14285714285714,0.82142857142857,0
0.00045281932383535,0.00075080077084554,672,83.5,0.17857142857143,0.82142857142857,0
0.00041579828341739,0.00073734149107439,673,83.5,0.21428571428571,0.82142857142857,0
0.0003755472850226,0.00072614022367879,674,83.5,0.25,0.82142857142857,0
0.00033244398577117,0.0007170660619523,675,83.5,0.28571428571429,0.82142857142857,0
0.00028710491503412,0.00070974749293614,676,83.5,0.32142857142857,0.82142857142857,0
0.00024018540922783,0.00070373992576411,677,83.5,0.35714285714286,0.82142857142857,0
0.00019217007952959,0.00069870254730097,678,83.5,0.39285714285714,0.82142857142857,0
0.00014332701439294,0.00069452731110271,679,83.5,0.42857142857143,0.82142857142857,0
9.3873489342746e-05,0.00069112989214291,680,83.5,0.46428571428571,0.82142857142857,0
4.3838112385137e-05,0.00068859870193361,681,83.5,0.5,0.82142857142857,0
-6.6334956568666e-06,0.00068701473905035,682,83.5,0.53571428571429,0.82142857142857,0
-5.7472330516996e-05,0.00068646179776083,683,83.5,0.57142857142857,0.82142857142857,0
-0.000108429225464,0.00068708401624256,684,83.5,0.60714285714286,0.82142857142857,0
-0.00015912072220006,0.00068887432147023,685,83.5,0.64285714285714,0.82142857142857,0
-0.00020905900479708,0.00069197849228295,686,83.5,0.67857142857143,0.82142857142857,0
-0.00025767147910174,0.00069653996243085,687,83.5,0.71428571428571,0.82142857142857,0
-0.00030449007339039,0.00070282179374271,688,83.5,0.75,0.82142857142857,0
-0.00034920178065333,0.00071105726928262,689,83.5,0.78571428571429,0.82142857142857,0
-0.00039162337840856,0.00072149619023873,690,83.5,0.82142857142857,0.82142857142857,0
-0.00043135036162399,0.00073438208187622,691,83.5,0.85714285714286,0.82142857142857,0
-0.00046804563791719,0.00074981504255181,692,83.5,0.89285714285714,0.82142857142857,0
-0.00050166267732715,0.00076744990635495,693,83.5,0.92857142857143,0.82142857142857,0
-0.00053252313470295,0.00078667428299503,694,83.5,0.96428571428571,0.82142857142857,0
-0.00056098419142518,0.00080673094452273,695,83.5,1,0.82142857142857,0
0.00058915657155667,0.0008559760906218,696,83.5,0.035714285714286,0.85714285714286,0
0.00061285682143072,0.00087280154615418,697,83.5,0,0.85714285714286,0
0.00056283264445882,0.00083939860366695,698,83.5,0.071428571428571,0.85714285714286,0
0.00053358767999464,0.00082376766382015,699,83.5,0.10714285714286,0.85714285714286,0
0.00050113093955844,0.00080966222831868,700,83.5,0.14285714285714,0.85714285714286,0
0.00046529093115193,0.00079747148887359,701,83.5,0.17857142857143,0.85714285714286,0
0.00042612683794545,0.00078732304376776,702,83.5,0.21428571428571,0.85714285714286,0
0.00038397168184163,0.00077906996225679,703,83.5,0.25,0.85714285714286,0
0.00033937344461642,0.00077235145922733,704,83.5,0.28571428571429,0.85714285714286,0
0.00029293763851342,0.00076674900123714,705,83.5,0.32142857142857,0.85714285714286,0
0.00024515889715507,0.00076194848864338,706,83.5,0.35714285714286,0.85714285714286,0
0.00019635836865258,0.00075783308615883,707,83.5,0.39285714285714,0.85714285714286,0
0.00014676421341045,0.00075436112712037,708,83.5,0.42857142857143,0.85714285714286,0
9.6460933712758e-05,0.00075159939770401,709,83.5,0.46428571428571,0.85714285714286,0
4.5559686226986e-05,0.00074961339177964,710,83.5,0.5,0.85714285714286,0
-5.8659307755365e-06,0.00074845768435526,711,83.5,0.53571428571429,0.85714285714286,0
-5.7631858211775e-05,0.00074817880399182,712,83.5,0.57142857142857,0.85714285714286,0
-0.00010947323858819,0.0007487179675954,713,83.5,0.60714285714286,0.85714285714286,0
-0.00016105095978559,0.00075005605297535,714,83.5,0.64285714285714,0.85714285714286,0
-0.00021198527064604,0.00075221158313424,715,83.5,0.67857142857143,0.85714285714286,0
-0.00026188799378377,0.00075536930207834,716,83.5,0.71428571428571,0.85714285714286,0
-0.00031037279002227,0.00075984397917677,717,83.5,0.75,0.85714285714286,0
-0.00035707280248976,0.00076599394801681,718,83.5,0.78571428571429,0.85714285714286,0
-0.00040160356951143,0.00077402609859219,719,83.5,0.82142857142857,0.85714285714286,0
-0.0004436234846747,0.00078408382721603,720,83.5,0.85714285714286,0.85714285714286,0
-0.00048270573120286,0.0007963192577039,721,83.5,0.89285714285714,0.85714285714286,0
-0.00051850867304127,0.00081071952395083,722,83.5,0.92857142857143,0.85714285714286,0
-0.00055091837178143,0.00082691701360292,723,83.5,0.96428571428571,0.85714285714286,0
-0.00058008398027219,0.00084425165017735,724,83.5,1,0.85714285714286,0
0.00060453416903804,0.00089114275299393,725,83.5,0.035714285714286,0.89285714285714,0
0.00062826657843641,0.00090495301000654,726,83.5,0,0.89285714285714,0
0.00057735088662444,0.00087779314410924,727,83.5,0.071428571428571,0.89285714285714,0
0.00054659485857722,0.00086558266807771,728,83.5,0.10714285714286,0.89285714285714,0
0.00051224873464376,0.00085498746260926,729,83.5,0.14285714285714,0.89285714285714,0
0.00047446394573881,0.00084619949152081,730,83.5,0.17857142857143,0.89285714285714,0
0.00043358884947208,0.0008391144946041,731,83.5,0.21428571428571,0.89285714285714,0
0.00039012398796625,0.0008334002934857,732,83.5,0.25,0.89285714285714,0
0.00034460738142006,0.00082864506510339,733,83.5,0.28571428571429,0.89285714285714,0
0.00029749496008213,0.00082451730546366,734,83.5,0.32142857142857,0.89285714285714,0
0.00024911383483913,0.00082086367927187,735,83.5,0.35714285714286,0.89285714285714,0
0.00019970893257547,0.00081765344090068,736,83.5,0.39285714285714,0.89285714285714,0
0.00014942732974282,0.00081496161256974,737,83.5,0.42857142857143,0.89285714285714,0
9.8403911352714e-05,0.00081287688271259,738,83.5,0.46428571428571,0.89285714285714,0
4.6740818647035e-05,0.00081146330262515,739,83.5,0.5,0.89285714285714,0
-5.4013187373553e-06,0.00081073844422746,740,83.5,0.53571428571429,0.89285714285714,0
-5.7808447826397e-05,0.00081063308337017,741,83.5,0.57142857142857,0.89285714285714,0
-0.00011021454179061,0.00081106576861296,742,83.5,0.60714285714286,0.89285714285714,0
-0.00016235214407654,0.00081197204425972,743,83.5,0.64285714285714,0.89285714285714,0
-0.00021396646808559,0.00081338989101935,744,83.5,0.67857142857143,0.89285714285714,0
-0.00026480647316947,0.00081548072961932,745,83.5,0.71428571428571,0.89285714285714,0
-0.00031456248449888,0.00081852597111078,746,83.5,0.75,0.89285714285714,0
-0.00036281463114361,0.0008228116607233,747,83.5,0.78571428571429,0.89285714285714,0
-0.00040911475633522,0.00082857562516198,748,83.5,0.82142857142857,0.89285714285714,0
-0.00045302167438341,0.00083596510193499,749,83.5,0.85714285714286,0.89285714285714,0
-0.00049411218316866,0.00084507683615947,750,83.5,0.89285714285714,0.89285714285714,0
-0.00053190423479477,0.00085595936641729,751,83.5,0.92857142857143,0.89285714285714,0
-0.00056598098259939,0.00086847071442085,752,83.5,0.96428571428571,0.89285714285714,0
-0.00059614389839548,0.00088220070780235,753,83.5,1,0.89285714285714,0
0.00061634808428865,0.00092688835329951,754,83.5,0.035714285714286,0.92857142857143,0
0.00064028167416913,0.00093677171448012,755,83.5,0,0.92857142857143,0
0.00058819103700941,0.00091749974956727,756,83.5,0.071428571428571,0.92857142857143,0
0.00055594415163957,0.00090915071899959,757,83.5,0.10714285714286,0.92857142857143,0
0.00051992951408404,0.00090216029921012,758,83.5,0.14285714285714,0.92857142857143,0
0.00048062196385146,0.00089656360188462,759,83.5,0.17857142857143,0.92857142857143,0
0.00043857679101686,0.00089214838562544,760,83.5,0.21428571428571,0.92857142857143,0
0.00039432879993506,0.00088857423294616,761,83.5,0.25,0.92857142857143,0
0.00034830545195705,0.00088551873156486,762,83.5,0.28571428571429,0.92857142857143,0
0.00030080193920729,0.00088278118706069,763,83.5,0.32142857142857,0.92857142857143,0
0.00025203130975801,0.00088028385370418,764,83.5,0.35714285714286,0.92857142857143,0
0.00020215016713315,0.00087806456244819,765,83.5,0.39285714285714,0.92857142857143,0
0.00015131909863101,0.00087621564311541,766,83.5,0.42857142857143,0.92857142857143,0
9.9694609729262e-05,0.00087483251778627,767,83.5,0.46428571428571,0.92857142857143,0
4.7466479608615e-05,0.00087396323277194,768,83.5,0.5,0.92857142857143,0
-5.1553771708198e-06,0.000873568397905,769,83.5,0.53571428571429,0.92857142857143,0
-5.7941140506787e-05,0.00087355799809025,770,83.5,0.57142857142857,0.92857142857143,0
-0.00011067539448279,0.00087383915860258,771,83.5,0.60714285714286,0.92857142857143,0
-0.00016316571592533,0.00087438009779945,772,83.5,0.64285714285714,0.92857142857143,0
-0.00021524735591772,0.00087522931743174,773,83.5,0.67857142857143,0.92857142857143,0
-0.00026672955817271,0.0008765145831364,774,83.5,0.71428571428571,0.92857142857143,0
-0.00031733099186714,0.00087839830092362,775,83.5,0.75,0.92857142857143,0
-0.00036666966059402,0.00088107788220028,776,83.5,0.78571428571429,0.92857142857143,0
-0.00041427594563088,0.00088475542643085,777,83.5,0.82142857142857,0.92857142857143,0
-0.00045964886619428,0.00088958883091105,778,83.5,0.85714285714286,0.92857142857143,0
-0.00050226544536421,0.0008956497586963,779,83.5,0.89285714285714,0.92857142857143,0
-0.0005415859533203,0.00090293847566384,780,83.5,0.92857142857143,0.92857142857143,0
-0.00057706187799686,0.00091139956143939,781,83.5,0.96428571428571,0.92857142857143,0
-0.00060825056317956,0.00092084354277733,782,83.5,1,0.92857142857143,0
0.00062381241767332,0.00096324754172763,783,83.5,0.035714285714286,0.96428571428571,0
0.00064796614808289,0.00096841842967467,784,83.5,0,0.96428571428571,0
0.00059487976874186,0.00095839496781845,785,83.5,0.071428571428571,0.96428571428571,0
0.00056153381625828,0.00095416617787763,786,83.5,0.10714285714286,0.96428571428571,0
0.00052438140712491,0.00095071492908833,787,83.5,0.14285714285714,0.96428571428571,0
0.00048412823448314,0.0009480165534226,788,83.5,0.17857142857143,0.96428571428571,0
0.00044142885381834,0.00094591100853597,789,83.5,0.21428571428571,0.96428571428571,0
0.00039678494933979,0.00094419336689018,790,83.5,0.25,0.96428571428571,0
0.00035051923482548,0.00094269789563318,791,83.5,0.28571428571429,0.96428571428571,0
0.00030282600229434,0.00094132570174211,792,83.5,0.32142857142857,0.96428571428571,0
0.00025382610580877,0.00094005341219578,793,83.5,0.35714285714286,0.96428571428571,0
0.00020364352752644,0.00093891288417714,794,83.5,0.39285714285714,0.96428571428571,0
0.00015243435532778,0.00093796967987258,795,83.5,0.42857142857143,0.96428571428571,0
0.00010041542130215,0.00093728620515668,796,83.5,0.46428571428571,0.96428571428571,0
4.7838058410226e-05,0.0009368800935198,797,83.5,0.5,0.96428571428571,0
-5.0419300685306e-06,0.00093671673876868,798,83.5,0.53571428571429,0.96428571428571,0
-5.8012777994985e-05,0.00093672870243482,799,83.5,0.57142857142857,0.96428571428571,0
-0.00011091063983193,0.00093686134396834,800,83.5,0.60714285714286,0.96428571428571,0
-0.0001636094753436,0.00093710676546014,801,83.5,0.64285714285714,0.96428571428571,0
-0.00021597495630207,0.00093750703739315,802,83.5,0.67857142857143,0.96428571428571,0
-0.0002678241408594,0.00093812087553349,803,83.5,0.71428571428571,0.96428571428571,0
-0.00031890350413413,0.00093902092404647,804,83.5,0.75,0.96428571428571,0
-0.00036886820453554,0.00094030224056853,805,83.5,0.78571428571429,0.96428571428571,0
-0.00041727356012303,0.00094208289617342,806,83.5,0.82142857142857,0.96428571428571,0
-0.00046357394715365,0.00094446504110463,807,83.5,0.85714285714286,0.96428571428571,0
-0.00050716783951697,0.00094749260781278,808,83.5,0.89285714285714,0.96428571428571,0
-0.00054744184138357,0.00095115440462303,809,83.5,0.92857142857143,0.96428571428571,0
-0.00058380711508526,0.00095541241315019,810,83.5,0.96428571428571,0.96428571428571,0
-0.00061573251869974,0.00096020048916261,811,83.5,1,0.96428571428571,0
0.00062636824298766,0.001,812,83.5,0.035714285714286,1,0
0.0006506153217505,0.001,813,83.5,0,1,0
0.00059713927342654,0.001,814,83.5,0.071428571428571,1,0
0.00056338791803409,0.001,815,83.5,0.10714285714286,1,0
0.00052583318360405,0.001,816,83.5,0.14285714285714,1,0
0.00048526286265642,0.001,817,83.5,0.17857142857143,1,0
0.0004423564588389,0.001,818,83.5,0.21428571428571,1,0
0.00039759248430752,0.001,819,83.5,0.25,1,0
0.00035125918237738,0.001,820,83.5,0.28571428571429,1,0
0.00030350728639729,0.001,821,83.5,0.32142857142857,1,0
0.00025443503287984,0.001,822,83.5,0.35714285714286,1,0
0.00020414485003239,0.001,823,83.5,0.39285714285714,1,0
0.00015280257241816,0.001,824,83.5,0.42857142857143,1,0
0.00010064349653319,0.001,825,83.5,0.46428571428571,1,0
4.7950606700254e-05,0.001,826,83.5,0.5,1,0
-5.0108058194357e-06,0.001,827,83.5,0.53571428571429,1,0
-5.8032591553412e-05,0.001,828,83.5,0.57142857142857,1,0
-0.00011098113820087,0.001,829,83.5,0.60714285714286,1,0
-0.00016375078683517,0.001,830,83.5,0.64285714285714,1,0
-0.00021621155740111,0.001,831,83.5,0.67857142857143,1,0
-0.00026818045845571,0.001,832,83.5,0.71428571428571,1,0
-0.00031941194960733,0.001,833,83.5,0.75,1,0
-0.0003695819097133,0.001,834,83.5,0.78571428571429,1,0
-0.00041825327786851,0.001,835,83.5,0.82142857142857,1,0
-0.00046487215625841,0.001,836,83.5,0.85714285714286,1,0
-0.00050880348777163,0.001,837,83.5,0.89285714285714,1,0
-0.00054940369354079,0.001,838,83.5,0.92857142857143,1,0
-0.00058606820111549,0.001,839,83.5,0.96428571428571,1,0
-0.00061825592127384,0.001,840,83.5,1,1,0
