disp_x,disp_y,id,vonmises_stress_nodal,x,y,z
0,0,0,83.5,0,0,0
0,0,1,83.5,0.035714285714286,0,0
2.2751933037609e-05,2.1930234968757e-05,2,83.5,0.035714285714286,0.035714285714286,0
6.3270138936078e-05,4.8550958535401e-05,3,83.5,0,0.035714285714286,0
0,0,4,81.142331837626,0.071428571428571,0,0
1.2410673250425e-05,1.5978984894944e-05,5,82.321165918813,0.071428571428571,0.035714285714286,0
0,0,6,75.100601987343,0.10714285714286,0,0
1.0024935958428e-05,1.4489224965316e-05,7,78.762126034976,0.10714285714286,0.035714285714286,0
0,0,8,68.936965501893,0.14285714285714,0,0
8.4522910559096e-06,1.3964293886503e-05,9,73.17417846217,0.14285714285714,0.035714285714286,0
0,0,10,64.198676883564,0.17857142857143,0,0
6.9970023864524e-06,1.3328683258125e-05,11,67.617984386833,0.17857142857143,0.035714285714286,0
0,0,12,60.050349068217,0.21428571428571,0,0
5.8051642994877e-06,1.2776579346159e-05,13,63.101619517935,0.21428571428571,0.035714285714286,0
0,0,14,56.600229603207,0.25,0,0
4.8198122977398e-06,1.2256455510185e-05,15,59.08637789745,0.25,0.035714285714286,0
0,0,16,53.689868772931,0.28571428571429,0,0
4.0389242124615e-06,1.1828787487734e-05,17,55.816506692981,0.28571428571429,0.035714285714286,0
0,0,18,51.869570619558,0.32142857142857,0,0
3.4669444096717e-06,1.1393736718208e-05,19,53.301441783044,0.32142857142857,0.035714285714286,0
0,0,20,51.839170642624,0.35714285714286,0,0
3.2062477187632e-06,1.1585155645023e-05,21,53.523166213642,0.35714285714286,0.035714285714286,0
0,0,22,55.160537749348,0.39285714285714,0,0
2.5816796988054e-06,1.179991879602e-05,23,56.247698432808,0.39285714285714,0.035714285714286,0
0,0,24,62.428273673758,0.42857142857143,0,0
1.7288202302302e-06,1.4066802111229e-05,25,65.583005357101,0.42857142857143,0.035714285714286,0
0,0,26,64.63076545422,0.46428571428571,0,0
-6.5232295003449e-07,1.5558930166427e-05,27,71.631180989981,0.46428571428571,0.035714285714286,0
0,0,28,55.170135436746,0.5,0,0
-1.8024288448993e-06,1.2364800533174e-05,29,56.83695851595,0.5,0.035714285714286,0
0,0,30,44.444281898679,0.53571428571429,0,0
-1.3922199678761e-06,9.3622175272122e-06,31,43.342099179092,0.53571428571429,0.035714285714286,0
0,0,32,41.670666165883,0.57142857142857,0,0
-1.2131111414602e-06,9.6560825667233e-06,33,43.225762513268,0.57142857142857,0.035714285714286,0
0,0,34,43.176095976113,0.60714285714286,0,0
-1.3304920756938e-06,9.8430937609576e-06,35,44.429545256171,0.60714285714286,0.035714285714286,0
0,0,36,45.699709463591,0.64285714285714,0,0
-1.5634131234296e-06,1.0369757434789e-05,37,46.956042532036,0.64285714285714,0.035714285714286,0
0,0,38,49.900540240191,0.67857142857143,0,0
-2.0405718468117e-06,1.1263108039686e-05,39,51.907616512403,0.67857142857143,0.035714285714286,0
0,0,40,55.053051462419,0.71428571428571,0,0
-3.0070550447133e-06,1.2311764325781e-05,41,58.402140833268,0.71428571428571,0.035714285714286,0
0,0,42,59.980267536897,0.75,0,0
-4.37535145541e-06,1.3139929698753e-05,43,64.00948842248,0.75,0.035714285714286,0
0,0,44,64.10654706848,0.78571428571429,0,0
-5.9302034434773e-06,1.3669751039917e-05,45,67.986024523123,0.78571428571429,0.035714285714286,0
0,0,46,67.50683423054,0.82142857142857,0,0
-7.5190464874764e-06,1.3872839667677e-05,47,71.331615063493,0.82142857142857,0.035714285714286,0
0,0,48,70.976993629895,0.85714285714286,0,0
-8.9740283985504e-06,1.4207074152636e-05,49,75.311428514778,0.85714285714286,0.035714285714286,0
0,0,50,76.606364612452,0.89285714285714,0,0
-1.0448248664967e-05,1.4551173931837e-05,51,79.776177670362,0.89285714285714,0.035714285714286,0
0,0,52,81.910704068049,0.92857142857143,0,0
-1.3046619508935e-05,1.639288612568e-05,53,82.705352034025,0.92857142857143,0.035714285714286,0
0,0,54,83.5,0.96428571428571,0,0
-2.3660654913182e-05,2.2090775195778e-05,55,83.5,0.96428571428571,0.035714285714286,0
0,0,56,83.5,1,0,0
-6.1773438780842e-05,4.6434797796207e-05,57,83.5,1,0.035714285714286,0
6.1320792600429e-05,6.25100993913e-05,58,83.5,0.035714285714286,0.071428571428571,0
8.2937539632191e-05,8.9774063599039e-05,59,83.5,0,0.071428571428571,0
3.4098759210677e-05,3.9332133645741e-05,60,83.5,0.071428571428571,0.071428571428571,0
2.1903510334813e-05,3.1263712524261e-05,61,82.961825041304,0.10714285714286,0.071428571428571,0
1.7616628779358e-05,2.8823455099358e-05,62,80.083421950808,0.14285714285714,0.071428571428571,0
1.4912643662532e-05,2.7629079617165e-05,63,74.639120141563,0.17857142857143,0.071428571428571,0
1.2420847304901e-05,2.6346881519293e-05,64,69.112087810641,0.21428571428571,0.071428571428571,0
1.0338568130197e-05,2.5181071704799e-05,65,64.329894559854,0.25,0.071428571428571,0
8.6326677568054e-06,2.4132035740927e-05,66,60.186049429778,0.28571428571429,0.071428571428571,0
7.125507505655e-06,2.3449654802621e-05,67,57.37746530852,0.32142857142857,0.071428571428571,0
5.7752756181897e-06,2.2775543492914e-05,68,55.770600003435,0.35714285714286,0.071428571428571,0
4.4272230802049e-06,2.5420113180992e-05,69,61.749224958621,0.39285714285714,0.071428571428571,0
2.6189983098133e-06,2.523713777219e-05,70,74.057923286584,0.42857142857143,0.071428571428571,0
7.2604820288842e-07,2.187032562321e-05,71,79.230660945156,0.46428571428571,0.071428571428571,0
-6.789150820882e-07,2.055341413583e-05,72,59.860326902317,0.5,0.071428571428571,0
-1.1137776704335e-06,1.9533332121972e-05,73,44.052233883952,0.53571428571429,0.071428571428571,0
-2.3061459786648e-06,1.9614192044492e-05,74,47.729922419877,0.57142857142857,0.071428571428571,0
-3.4290214885822e-06,2.0015204973448e-05,75,48.801630609817,0.60714285714286,0.071428571428571,0
-4.3748897699198e-06,2.0882479472623e-05,76,50.593039273009,0.64285714285714,0.071428571428571,0
-5.5280097753951e-06,2.2961126832859e-05,77,56.48833562537,0.67857142857143,0.071428571428571,0
-7.4349905905691e-06,2.5602997712697e-05,78,64.840393614235,0.71428571428571,0.071428571428571,0
-1.0113214186084e-05,2.7436473882388e-05,79,70.720777498458,0.75,0.071428571428571,0
-1.2753538389937e-05,2.8215777959464e-05,80,74.657581200298,0.78571428571429,0.071428571428571,0
-1.5380374001753e-05,2.8934533402768e-05,81,78.390113654063,0.82142857142857,0.071428571428571,0
-1.8520283431612e-05,2.9176323833879e-05,82,81.572931699831,0.85714285714286,0.071428571428571,0
-2.3345470571827e-05,3.1919277912304e-05,83,83.222995364136,0.89285714285714,0.071428571428571,0
-3.54573102955e-05,3.9765852274308e-05,84,83.5,0.92857142857143,0.071428571428571,0
-5.9667398105383e-05,6.0338733517679e-05,85,83.5,0.96428571428571,0.071428571428571,0
-7.8246479428168e-05,8.4328987583079e-05,86,83.5,1,0.071428571428571,0
8.4836271405559e-05,9.7164608898907e-05,87,83.5,0.035714285714286,0.10714285714286,0
0.0001068011961597,0.00011853134186565,88,83.5,0,0.10714285714286,0
6.2703365078098e-05,7.3994420370055e-05,89,83.5,0.071428571428571,0.10714285714286,0
4.0605718312727e-05,5.4707912234009e-05,90,83.5,0.10714285714286,0.10714285714286,0
2.8464335856029e-05,4.5832064405062e-05,91,83.127726239584,0.14285714285714,0.10714285714286,0
2.3172766697073e-05,4.2650491595019e-05,92,80.550720226823,0.17857142857143,0.10714285714286,0
1.964214386229e-05,4.0780992874406e-05,93,75.322861332055,0.21428571428571,0.10714285714286,0
1.6367751543735e-05,3.8846503500534e-05,94,69.860309943251,0.25,0.10714285714286,0
1.3548204127587e-05,3.704793046755e-05,95,64.855317816594,0.28571428571429,0.10714285714286,0
1.129907705925e-05,3.5787441651316e-05,96,61.696452651414,0.32142857142857,0.10714285714286,0
8.7995894130379e-06,3.5478080309385e-05,97,57.847211967559,0.35714285714286,0.10714285714286,0
7.1680991414786e-06,3.4708863906009e-05,98,66.741290021286,0.39285714285714,0.10714285714286,0
4.4009028784613e-06,3.219040562409e-05,99,78.977746991443,0.42857142857143,0.10714285714286,0
2.8653985960905e-06,2.9992986228162e-05,100,79.646955804629,0.46428571428571,0.10714285714286,0
-9.4545111605795e-08,2.888325576211e-05,101,62.754805324226,0.5,0.10714285714286,0
-1.2791637931101e-06,2.9892306124024e-05,102,48.56130420715,0.53571428571429,0.10714285714286,0
-3.3069914488425e-06,3.04705384165e-05,103,53.374053859522,0.57142857142857,0.10714285714286,0
-5.767925274946e-06,3.1129741069958e-05,104,55.652767350956,0.60714285714286,0.10714285714286,0
-8.3877860150244e-06,3.1513310791555e-05,105,54.745587102379,0.64285714285714,0.10714285714286,0
-1.0848699290751e-05,3.5142474393523e-05,106,63.471780601176,0.67857142857143,0.10714285714286,0
-1.3997121322168e-05,4.0117484657265e-05,107,75.714778512175,0.71428571428571,0.10714285714286,0
-1.6619973651051e-05,4.2272118608916e-05,108,78.451422844427,0.75,0.10714285714286,0
-1.9729547961084e-05,4.3608761020008e-05,109,80.474830211415,0.78571428571429,0.10714285714286,0
-2.3856679857513e-05,4.4779577003868e-05,110,82.56191570584,0.82142857142857,0.10714285714286,0
-3.0446218736613e-05,4.8177215591967e-05,111,83.5,0.85714285714286,0.10714285714286,0
-4.3031173514285e-05,5.4648110675836e-05,112,83.5,0.89285714285714,0.10714285714286,0
-6.0872637483734e-05,7.1212536854657e-05,113,83.5,0.92857142857143,0.10714285714286,0
-7.9805562516519e-05,9.1752590868463e-05,114,83.5,0.96428571428571,0.10714285714286,0
-9.8870333703033e-05,0.00011012077841877,115,83.5,1,0.10714285714286,0
0.00010679612647082,0.00012824841327421,116,83.5,0.035714285714286,0.14285714285714,0
0.00012840296451408,0.00015065894681404,117,83.5,0,0.14285714285714,0
8.4998039753447e-05,0.00010671986227354,118,83.5,0.071428571428571,0.14285714285714,0
6.3704962087242e-05,8.5571404624133e-05,119,83.5,0.10714285714286,0.14285714285714,0
4.4572900493789e-05,6.8607489049183e-05,120,83.5,0.14285714285714,0.14285714285714,0
3.2898687100288e-05,5.9589406771822e-05,121,83.180246030311,0.17857142857143,0.14285714285714,0
2.70371058689e-05,5.5841173316105e-05,122,80.72418090818,0.21428571428571,0.14285714285714,0
2.2879763538391e-05,5.3274355108584e-05,123,75.501825348675,0.25,0.14285714285714,0
1.8981331302505e-05,5.0715222789007e-05,124,69.792652625648,0.28571428571429,0.14285714285714,0
1.5551834017671e-05,4.8224929964389e-05,125,63.616164691336,0.32142857142857,0.14285714285714,0
1.3022579173804e-05,4.83145217678e-05,126,63.725753727755,0.35714285714286,0.14285714285714,0
1.0807427961438e-05,4.553051454149e-05,127,72.639922553096,0.39285714285714,0.14285714285714,0
7.4250213995255e-06,4.0165484212838e-05,128,78.305659137253,0.42857142857143,0.14285714285714,0
4.3325379590845e-06,3.8362989979318e-05,129,79.839555662781,0.46428571428571,0.14285714285714,0
6.0739957237495e-07,3.8547414465374e-05,130,66.1740511731,0.5,0.14285714285714,0
-1.5694708988774e-06,4.0598938130032e-05,131,53.992268494953,0.53571428571429,0.14285714285714,0
-4.3917912878433e-06,4.2107992338562e-05,132,58.420841982632,0.57142857142857,0.14285714285714,0
-7.7313542197117e-06,4.3017488173211e-05,133,61.233546599364,0.60714285714286,0.14285714285714,0
-1.1640231129404e-05,4.3776362837968e-05,134,58.508321833578,0.64285714285714,0.14285714285714,0
-1.4803489708583e-05,4.3528324577187e-05,135,69.14793200763,0.67857142857143,0.14285714285714,0
-1.8687145471472e-05,4.5431200140542e-05,136,83.5,0.71428571428571,0.14285714285714,0
-2.1149934040011e-05,4.8458204184308e-05,137,83.5,0.75,0.14285714285714,0
-2.5137831765152e-05,5.1415127164622e-05,138,83.5,0.78571428571429,0.14285714285714,0
-3.2504690423068e-05,5.5819835725793e-05,139,83.5,0.82142857142857,0.14285714285714,0
-4.5387383292197e-05,6.3859171614836e-05,140,83.5,0.85714285714286,0.14285714285714,0
-6.5446324248185e-05,7.847074713957e-05,141,83.5,0.89285714285714,0.14285714285714,0
-8.0936765012856e-05,9.9954623840424e-05,142,83.5,0.92857142857143,0.14285714285714,0
-9.8930557885488e-05,0.00011953238167113,143,83.5,0.96428571428571,0.14285714285714,0
-0.00011767213614209,0.00013954234765853,144,83.5,1,0.14285714285714,0
0.00012856993716924,0.00016027879082084,145,83.5,0.035714285714286,0.17857142857143,0
0.00015154569928485,0.00018303628829256,146,83.5,0,0.17857142857143,0
0.0001065219853525,0.00013818134202583,147,83.5,0.071428571428571,0.17857142857143,0
8.4874775820301e-05,0.00011689026084621,148,83.5,0.10714285714286,0.17857142857143,0
6.4424416033447e-05,9.7096901133488e-05,149,83.5,0.14285714285714,0.17857142857143,0
4.7050155737465e-05,8.1614127970287e-05,150,83.5,0.17857142857143,0.17857142857143,0
3.5832964333539e-05,7.264575987398e-05,151,83.186962402939,0.21428571428571,0.17857142857143,0
2.9578099471866e-05,6.8265893889235e-05,152,80.352311443132,0.25,0.17857142857143,0
2.5080993780505e-05,6.4826432763239e-05,153,74.510727112514,0.28571428571429,0.17857142857143,0
2.0806522805885e-05,6.1729953061206e-05,154,65.626598868565,0.32142857142857,0.17857142857143,0
1.7827449572348e-05,5.7736911731178e-05,155,69.120236683008,0.35714285714286,0.17857142857143,0
1.3791190964604e-05,5.2976238272836e-05,156,77.734572646518,0.39285714285714,0.17857142857143,0
1.0977184005409e-05,4.9705228660809e-05,157,78.480354425659,0.42857142857143,0.17857142857143,0
6.1860760958741e-06,4.8049303046772e-05,158,81.13508738882,0.46428571428571,0.17857142857143,0
1.0080713317798e-06,4.8900473265811e-05,159,70.156903945184,0.5,0.17857142857143,0
-1.8807453192212e-06,5.2137093824621e-05,160,59.458645343505,0.53571428571429,0.17857142857143,0
-5.29406598594e-06,5.4250189395736e-05,161,62.456996297408,0.57142857142857,0.17857142857143,0
-9.0935856027724e-06,5.5658667692806e-05,162,63.922976310986,0.60714285714286,0.17857142857143,0
-1.2893610668648e-05,5.6061290506906e-05,163,62.518291068728,0.64285714285714,0.17857142857143,0
-1.6222857620415e-05,5.3580127732131e-05,164,72.200279933914,0.67857142857143,0.17857142857143,0
-2.2806256040771e-05,5.2946827753801e-05,165,83.5,0.71428571428571,0.17857142857143,0
-2.8153434731647e-05,5.5864548803855e-05,166,83.5,0.75,0.17857142857143,0
-3.5121047491556e-05,6.212609831265e-05,167,83.5,0.78571428571429,0.17857142857143,0
-4.7143176357047e-05,7.1497404580867e-05,168,83.5,0.82142857142857,0.17857142857143,0
-6.5255920596974e-05,8.5790107712267e-05,169,83.5,0.85714285714286,0.17857142857143,0
-8.6490166737762e-05,0.0001038304540429,170,83.5,0.89285714285714,0.17857142857143,0
-0.00010257084333371,0.00012556232805289,171,83.5,0.92857142857143,0.17857142857143,0
-0.00011924694760105,0.00014763885769387,172,83.5,0.96428571428571,0.17857142857143,0
-0.00013845115313772,0.00016896982013645,173,83.5,1,0.17857142857143,0
0.00015138899136454,0.00019313239097651,174,83.5,0.035714285714286,0.21428571428571,0
0.00017526779521192,0.00021691726874951,175,83.5,0,0.21428571428571,0
0.00012826735539595,0.0001703215947528,176,83.5,0.071428571428571,0.21428571428571,0
0.00010602260503962,0.00014832593252257,177,83.5,0.10714285714286,0.21428571428571,0
8.4568690541533e-05,0.00012738835280966,178,83.5,0.14285714285714,0.21428571428571,0
6.4855312763907e-05,0.00010857688307223,179,83.5,0.17857142857143,0.21428571428571,0
4.8645762820783e-05,9.3963059941746e-05,180,83.5,0.21428571428571,0.21428571428571,0
3.7938978409259e-05,8.4887970695372e-05,181,82.917164573701,0.25,0.21428571428571,0
3.1495325261363e-05,7.9195280170462e-05,182,77.183046682715,0.28571428571429,0.21428571428571,0
2.6956447521723e-05,7.527709891658e-05,183,72.520091426272,0.32142857142857,0.21428571428571,0
2.3322094071618e-05,6.927828388954e-05,184,76.375452084463,0.35714285714286,0.21428571428571,0
1.8188167972573e-05,6.2038375011602e-05,185,79.537207583241,0.39285714285714,0.21428571428571,0
1.2749563939328e-05,5.8986121730982e-05,186,80.689241152105,0.42857142857143,0.21428571428571,0
7.8564729834236e-06,5.8769717707789e-05,187,82.771309960371,0.46428571428571,0.21428571428571,0
1.3778427983439e-06,6.0521941720115e-05,188,73.768274209015,0.5,0.21428571428571,0
-2.3142657989289e-06,6.4312740027504e-05,189,64.727729701336,0.53571428571429,0.21428571428571,0
-6.2462079752934e-06,6.6971568112569e-05,190,65.696582665338,0.57142857142857,0.21428571428571,0
-1.0115436129906e-05,6.8500519634065e-05,191,66.020765509958,0.60714285714286,0.21428571428571,0
-1.3837032505262e-05,6.8724492626258e-05,192,67.341380229972,0.64285714285714,0.21428571428571,0
-1.7488220353879e-05,6.606596562866e-05,193,76.059708268729,0.67857142857143,0.21428571428571,0
-2.7361261242558e-05,6.4269074828821e-05,194,83.5,0.71428571428571,0.21428571428571,0
-3.7482323525977e-05,6.7309715408045e-05,195,83.5,0.75,0.21428571428571,0
-4.9635174272756e-05,7.6683774915198e-05,196,83.5,0.78571428571429,0.21428571428571,0
-6.5670854392161e-05,9.1437073256258e-05,197,83.5,0.82142857142857,0.21428571428571,0
-8.52737081912e-05,0.00010954927699144,198,83.5,0.85714285714286,0.21428571428571,0
-0.00010773557854939,0.00012963350091822,199,83.5,0.89285714285714,0.21428571428571,0
-0.0001245458697834,0.00015186417609283,200,83.5,0.92857142857143,0.21428571428571,0
-0.00014220312192467,0.00017508110566852,201,83.5,0.96428571428571,0.21428571428571,0
-0.00016124563501678,0.00019926720008093,202,83.5,1,0.21428571428571,0
0.00017506165096028,0.00022710057078993,203,83.5,0.035714285714286,0.25,0
0.00019979901061454,0.00025151588612505,204,83.5,0,0.25,0
0.00015100831294583,0.00020341022852908,205,83.5,0.071428571428571,0.25,0
0.00012772100853292,0.00018058431606424,206,83.5,0.10714285714286,0.25,0
0.00010536770693655,0.00015865304990417,207,83.5,0.14285714285714,0.25,0
8.4207893131394e-05,0.00013799467303699,208,83.5,0.17857142857143,0.25,0
6.5288879276369e-05,0.00011973924605982,209,83.5,0.21428571428571,0.25,0
5.019789521531e-05,0.0001052285550877,210,83.5,0.25,0.25,0
4.0261263009501e-05,9.5566521992367e-05,211,80.31147273536,0.28571428571429,0.25,0
3.506239730058e-05,8.6052213916218e-05,212,80.311354665726,0.32142857142857,0.25,0
2.8730040107986e-05,7.7946462055155e-05,213,83.050776272756,0.35714285714286,0.25,0
2.2893320183935e-05,7.3378327867869e-05,214,82.53306286902,0.39285714285714,0.25,0
1.5266973551521e-05,7.0475982883373e-05,215,82.975853638618,0.42857142857143,0.25,0
7.4896033159732e-06,6.9342822376638e-05,216,83.05318416147,0.46428571428571,0.25,0
1.2818020647713e-06,7.287425761522e-05,217,76.91771579728,0.5,0.25,0
-3.2072422247136e-06,7.7493508684982e-05,218,70.129258633217,0.53571428571429,0.25,0
-7.4964469796297e-06,8.0071389466594e-05,219,69.04305437036,0.57142857142857,0.25,0
-1.1662692997905e-05,8.1719523120211e-05,220,69.568469870613,0.60714285714286,0.25,0
-1.5710110911686e-05,8.215984825781e-05,221,73.520670623874,0.64285714285714,0.25,0
-2.0146632895561e-05,8.0822203348187e-05,222,80.224213238204,0.67857142857143,0.25,0
-3.3322979657226e-05,7.9799956787631e-05,223,83.5,0.71428571428571,0.25,0
-4.8884293689404e-05,8.4233942983319e-05,224,83.5,0.75,0.25,0
-6.6170924124436e-05,9.5609450397246e-05,225,83.5,0.78571428571429,0.25,0
-8.5077690088291e-05,0.00011347704916845,226,83.5,0.82142857142857,0.25,0
-0.00010631828179989,0.00013419713595667,227,83.5,0.85714285714286,0.25,0
-0.00012949346692644,0.00015641172018966,228,83.5,0.89285714285714,0.25,0
-0.00014756983605064,0.00017935814624713,229,83.5,0.92857142857143,0.25,0
-0.00016653032744288,0.00020371812034493,230,83.5,0.96428571428571,0.25,0
-0.0001871210142473,0.0002298569472306,231,83.5,1,0.25,0
0.00019946330379811,0.00026185992353665,232,83.5,0.035714285714286,0.28571428571429,0
0.00022478919396504,0.00028680323238343,233,83.5,0,0.28571428571429,0
0.00017461452289452,0.00023751035511455,234,83.5,0.071428571428571,0.28571428571429,0
0.00015044068102954,0.00021383911262902,235,83.5,0.10714285714286,0.28571428571429,0
0.00012710686463742,0.00019090145344095,236,83.5,0.14285714285714,0.28571428571429,0
0.00010492314050749,0.00016881941475825,237,83.5,0.17857142857143,0.28571428571429,0
8.4474176044541e-05,0.00014802321170158,238,83.5,0.21428571428571,0.28571428571429,0
6.6831833053487e-05,0.00012953948544414,239,83.5,0.25,0.28571428571429,0
5.4055320219561e-05,0.00011335092139297,240,83.237341232842,0.28571428571429,0.28571428571429,0
4.5943512144903e-05,0.0001000795346995,241,83.237341232842,0.32142857142857,0.28571428571429,0
3.5049373931331e-05,9.0464055729025e-05,242,83.5,0.35714285714286,0.28571428571429,0
2.5458280954269e-05,8.5241977228695e-05,243,83.5,0.39285714285714,0.28571428571429,0
1.7195959429643e-05,8.3483193861227e-05,244,83.5,0.42857142857143,0.28571428571429,0
6.4930203130524e-06,8.4740367495512e-05,245,82.697458932632,0.46428571428571,0.28571428571429,0
9.1804963041798e-07,8.7853477496977e-05,246,79.408779752504,0.5,0.28571428571429,0
-4.5011042421109e-06,9.1055308192989e-05,247,74.973303603163,0.53571428571429,0.28571428571429,0
-9.2450592134342e-06,9.377228644135e-05,248,73.090096706209,0.57142857142857,0.28571428571429,0
-1.3996619558315e-05,9.5636009213149e-05,249,74.924062390059,0.60714285714286,0.28571428571429,0
-1.8865116448095e-05,9.6426587123778e-05,250,79.503592731012,0.64285714285714,0.28571428571429,0
-2.4923752757635e-05,9.7765496501479e-05,251,82.907644263872,0.67857142857143,0.28571428571429,0
-4.1745764254422e-05,9.9429215163148e-05,252,83.5,0.71428571428571,0.28571428571429,0
-6.1064799040824e-05,0.00010581910717069,253,83.5,0.75,0.28571428571429,0
-8.2753099251659e-05,0.00011901304036714,254,83.5,0.78571428571429,0.28571428571429,0
-0.00010523270172839,0.00013734982895677,255,83.5,0.82142857142857,0.28571428571429,0
-0.0001278283915503,0.00015999740729678,256,83.5,0.85714285714286,0.28571428571429,0
-0.00015247183346866,0.0001842168503085,257,83.5,0.89285714285714,0.28571428571429,0
-0.00017153270954803,0.00020820674002111,258,83.5,0.92857142857143,0.28571428571429,0
-0.00019252137346038,0.0002343587118209,259,83.5,0.96428571428571,0.28571428571429,0
-0.00021433482467117,0.00026138688955056,260,83.5,1,0.28571428571429,0
0.00022435888175485,0.00029724824129636,261,83.5,0.035714285714286,0.32142857142857,0
0.00025014363790526,0.00032253712901325,262,83.5,0,0.32142857142857,0
0.00019895646150694,0.00027236584424976,263,83.5,0.071428571428571,0.32142857142857,0
0.00017412868847277,0.00024794936038166,264,83.5,0.10714285714286,0.32142857142857,0
0.00015013112788083,0.00022402018317052,265,83.5,0.14285714285714,0.32142857142857,0
0.00012725034994775,0.00020054045103144,266,83.5,0.17857142857143,0.32142857142857,0
0.00010599620535313,0.00017762786067908,267,83.5,0.21428571428571,0.32142857142857,0
8.7506031845594e-05,0.00015546392200219,268,83.5,0.25,0.32142857142857,0
7.1919028161215e-05,0.00013526887504222,269,83.5,0.28571428571429,0.32142857142857,0
5.859510258658e-05,0.00011906263006494,270,83.5,0.32142857142857,0.32142857142857,0
4.2985022203857e-05,0.00010736819173373,271,83.5,0.35714285714286,0.32142857142857,0
2.9146990348141e-05,0.00010097515060463,272,83.5,0.39285714285714,0.32142857142857,0
1.6154349324921e-05,9.8017600603204e-05,273,83.5,0.42857142857143,0.32142857142857,0
6.2082605884456e-06,0.0001001536360615,274,83.13795988315,0.46428571428571,0.32142857142857,0
-3.079277006787e-07,0.00010283855038042,275,81.489297293602,0.5,0.32142857142857,0
-6.0264587318069e-06,0.00010552863475943,276,78.84939894858,0.53571428571429,0.32142857142857,0
-1.1537892243864e-05,0.00010802966454561,277,77.994486232657,0.57142857142857,0.32142857142857,0
-1.6853471658966e-05,0.00011017066857258,278,80.302022166877,0.60714285714286,0.32142857142857,0
-2.3087921089921e-05,0.00011244667959712,279,82.805597472349,0.64285714285714,0.32142857142857,0
-3.2990202840221e-05,0.00011719598705878,280,83.5,0.67857142857143,0.32142857142857,0
-5.1360108750039e-05,0.00012148437717135,281,83.5,0.71428571428571,0.32142857142857,0
-7.405917922409e-05,0.00013174020668345,282,83.5,0.75,0.32142857142857,0
-9.9336674084645e-05,0.00014595419216983,283,83.5,0.78571428571429,0.32142857142857,0
-0.00012522456515423,0.00016461210027408,284,83.5,0.82142857142857,0.32142857142857,0
-0.00015077008978307,0.00018668757517162,285,83.5,0.85714285714286,0.32142857142857,0
-0.00017587796680061,0.00021315389346235,286,83.5,0.89285714285714,0.32142857142857,0
-0.00019752442385285,0.00023935148376853,287,83.5,0.92857142857143,0.32142857142857,0
-0.00021960721342548,0.00026607928093637,288,83.5,0.96428571428571,0.32142857142857,0
-0.0002420006177316,0.00029367963236971,289,83.5,1,0.32142857142857,0
0.00024963994525902,0.00033305999933073,290,83.5,0.035714285714286,0.35714285714286,0
0.00027572602377214,0.0003586265041161,291,83.5,0,0.35714285714286,0
0.00022390783985807,0.00030770834552134,292,83.5,0.071428571428571,0.35714285714286,0
0.00019877521559403,0.00028256065350757,293,83.5,0.10714285714286,0.35714285714286,0
0.00017453045616583,0.00025757727832018,294,83.5,0.14285714285714,0.35714285714286,0
0.00015149740311274,0.00023269415230788,295,83.5,0.17857142857143,0.35714285714286,0
0.00013004692330333,0.00020774342291602,296,83.5,0.21428571428571,0.35714285714286,0
0.00011003893264348,0.00018331273299421,297,83.5,0.25,0.35714285714286,0
9.1269783528675e-05,0.00016140734580408,298,83.5,0.28571428571429,0.35714285714286,0
7.3581035384346e-05,0.00014377523025616,299,83.5,0.32142857142857,0.35714285714286,0
5.2124144323015e-05,0.00012901016792536,300,83.5,0.35714285714286,0.35714285714286,0
3.3994127180988e-05,0.00012068088440648,301,83.5,0.39285714285714,0.35714285714286,0
1.6308660764378e-05,0.00011834671318572,302,83.5,0.42857142857143,0.35714285714286,0
6.7007233800295e-06,0.00011766148747309,303,83.5,0.46428571428571,0.35714285714286,0
-1.5177999432873e-06,0.00011833399980532,304,83.109181120933,0.5,0.35714285714286,0
-8.0256711555896e-06,0.00012043575249198,305,82.123029678801,0.53571428571429,0.35714285714286,0
-1.4128716381385e-05,0.0001228598888086,306,82.071576416217,0.57142857142857,0.35714285714286,0
-2.0854811637898e-05,0.00012590211134465,307,83.057727858349,0.60714285714286,0.35714285714286,0
-3.0400142388129e-05,0.0001318081865615,308,83.5,0.64285714285714,0.35714285714286,0
-4.4426794653735e-05,0.00014172919587226,309,83.5,0.67857142857143,0.35714285714286,0
-6.347971684199e-05,0.00015412865961015,310,83.5,0.71428571428571,0.35714285714286,0
-8.8576652915607e-05,0.00016719885444332,311,83.5,0.75,0.35714285714286,0
-0.0001160834877455,0.00018338067836775,312,83.5,0.78571428571429,0.35714285714286,0
-0.00014474735284324,0.00020189690855245,313,83.5,0.82142857142857,0.35714285714286,0
-0.00017342915296727,0.00022388719630833,314,83.5,0.85714285714286,0.35714285714286,0
-0.00019949529125078,0.00024699265199605,315,83.5,0.89285714285714,0.35714285714286,0
-0.0002240079283692,0.00027173485171741,316,83.5,0.92857142857143,0.35714285714286,0
-0.00024706735832192,0.00029861240520503,317,83.5,0.96428571428571,0.35714285714286,0
-0.00026983422124857,0.00032614126303943,318,83.5,1,0.35714285714286,0
0.00027528480112603,0.00036908672480596,319,83.5,0.035714285714286,0.39285714285714,0
0.00030148747591769,0.00039493200260703,320,83.5,0,0.39285714285714,0
0.00024951629568748,0.00034321170067469,321,83.5,0.071428571428571,0.39285714285714,0
0.00022445091923427,0.00031724070219061,322,83.5,0.10714285714286,0.39285714285714,0
0.00020035537769231,0.00029113700073165,323,83.5,0.14285714285714,0.39285714285714,0
0.00017740801065041,0.00026488186326622,324,83.5,0.17857142857143,0.39285714285714,0
0.00015527350241729,0.00023885821096452,325,83.5,0.21428571428571,0.39285714285714,0
0.00013320150870922,0.00021404401848977,326,83.5,0.25,0.39285714285714,0
0.00011092288011473,0.0001914596624111,327,83.5,0.28571428571429,0.39285714285714,0
8.9540883716542e-05,0.00017258681503457,328,83.5,0.32142857142857,0.39285714285714,0
6.3854913369209e-05,0.00015667043671016,329,83.5,0.35714285714286,0.39285714285714,0
3.9572338265165e-05,0.00014462249322152,330,83.5,0.39285714285714,0.39285714285714,0
2.1191751957533e-05,0.00013980847497777,331,83.5,0.42857142857143,0.39285714285714,0
8.5203056664125e-06,0.00013695021105865,332,83.5,0.46428571428571,0.39285714285714,0
-1.4424742425168e-06,0.00013565928672937,333,83.5,0.5,0.39285714285714,0
-9.9081427754852e-06,0.00013632490545198,334,83.5,0.53571428571429,0.39285714285714,0
-1.7951917618567e-05,0.00013927775303187,335,83.5,0.57142857142857,0.39285714285714,0
-2.8105333726947e-05,0.00014530472082297,336,83.5,0.60714285714286,0.39285714285714,0
-4.1956628753936e-05,0.00015542795252982,337,83.5,0.64285714285714,0.39285714285714,0
-5.9546475657114e-05,0.0001695193738256,338,83.5,0.67857142857143,0.39285714285714,0
-8.0776928921404e-05,0.00018653110632112,339,83.5,0.71428571428571,0.39285714285714,0
-0.00010550729022415,0.00020440686960127,340,83.5,0.75,0.39285714285714,0
-0.00013397996207084,0.00022229164482228,341,83.5,0.78571428571429,0.39285714285714,0
-0.00016400400559555,0.00024187461904149,342,83.5,0.82142857142857,0.39285714285714,0
-0.00019342613709244,0.00026209721923522,343,83.5,0.85714285714286,0.39285714285714,0
-0.00022183941686305,0.00028344223890007,344,83.5,0.89285714285714,0.39285714285714,0
-0.00024871174269999,0.00030671716757898,345,83.5,0.92857142857143,0.39285714285714,0
-0.00027399309407014,0.00033197533410351,346,83.5,0.96428571428571,0.39285714285714,0
-0.00029760269013971,0.00035898920226121,347,83.5,1,0.39285714285714,0
0.00030139826710864,0.00040504329156332,348,83.5,0.035714285714286,0.42857142857143,0
0.00032744553235345,0.0004312705545821,349,83.5,0,0.42857142857143,0
0.00027592097206263,0.00037851479237657,350,83.5,0.071428571428571,0.42857142857143,0
0.00025120898072237,0.00035166253909098,351,83.5,0.10714285714286,0.42857142857143,0
0.00022731055744928,0.00032456926282995,352,83.5,0.14285714285714,0.42857142857143,0
0.00020389990622653,0.00029764704902125,353,83.5,0.17857142857143,0.42857142857143,0
0.0001803318541946,0.00027169897927801,354,83.5,0.21428571428571,0.42857142857143,0
0.00015610476295307,0.00024746185972175,355,83.5,0.25,0.42857142857143,0
0.0001310471527325,0.00022534807581193,356,83.5,0.28571428571429,0.42857142857143,0
0.0001054606967991,0.00020552194412174,357,83.5,0.32142857142857,0.42857142857143,0
7.7208273219217e-05,0.00018679739306205,358,83.5,0.35714285714286,0.42857142857143,0
4.953844545309e-05,0.00017578217928011,359,83.5,0.39285714285714,0.42857142857143,0
2.950156719508e-05,0.00016635538313432,360,83.5,0.42857142857143,0.42857142857143,0
1.3115771164073e-05,0.00015900939953875,361,83.5,0.46428571428571,0.42857142857143,0
2.5556927795416e-08,0.00015555219247894,362,83.5,0.5,0.42857142857143,0
-1.1763182745466e-05,0.00015550704320294,363,83.5,0.53571428571429,0.42857142857143,0
-2.4296123951795e-05,0.00015983706871048,364,83.5,0.57142857142857,0.42857142857143,0
-3.9080144777813e-05,0.0001691683338551,365,83.5,0.60714285714286,0.42857142857143,0
-5.6900174903915e-05,0.00018291305563557,366,83.5,0.64285714285714,0.42857142857143,0
-7.7650862511893e-05,0.0002002138264098,367,83.5,0.67857142857143,0.42857142857143,0
-0.00010068300022748,0.00021995246404289,368,83.5,0.71428571428571,0.42857142857143,0
-0.00012593927919491,0.00024089735305311,369,83.5,0.75,0.42857142857143,0
-0.00015351459166267,0.00026180302933638,370,83.5,0.78571428571429,0.42857142857143,0
-0.00018285900586611,0.00028181625518722,371,83.5,0.82142857142857,0.42857142857143,0
-0.0002128253002316,0.00030172514700032,372,83.5,0.85714285714286,0.42857142857143,0
-0.00024263941101841,0.00032222659006539,373,83.5,0.89285714285714,0.42857142857143,0
-0.00027164693946144,0.00034399240259151,374,83.5,0.92857142857143,0.42857142857143,0
-0.0002990455390842,0.00036744305797079,375,83.5,0.96428571428571,0.42857142857143,0
-0.00032456190735288,0.00039260376147448,376,83.5,1,0.42857142857143,0
0.00032814278769162,0.00044060587543206,377,83.5,0.035714285714286,0.46428571428571,0
0.00035372535747381,0.00046736462294796,378,83.5,0,0.46428571428571,0
0.00030316882045321,0.00041337887060616,379,83.5,0.071428571428571,0.46428571428571,0
0.000278752396986,0.00038583789812127,380,83.5,0.10714285714286,0.46428571428571,0
0.00025454405360401,0.00035839940424719,381,83.5,0.14285714285714,0.46428571428571,0
0.00022997213659916,0.00033175775216961,382,83.5,0.17857142857143,0.46428571428571,0
0.00020456835427992,0.00030659303239683,383,83.5,0.21428571428571,0.46428571428571,0
0.00017813234883562,0.00028331224288235,384,83.5,0.25,0.46428571428571,0
0.00015069973502058,0.00026210501780955,385,83.5,0.28571428571429,0.46428571428571,0
0.00012191784537792,0.00024329994005997,386,83.5,0.32142857142857,0.46428571428571,0
9.2330924734611e-05,0.00022699219457638,387,83.5,0.35714285714286,0.46428571428571,0
6.5008157002018e-05,0.00021036141284438,388,83.5,0.39285714285714,0.46428571428571,0
4.0988258243971e-05,0.00019591066240039,389,83.5,0.42857142857143,0.46428571428571,0
2.0854853285669e-05,0.00018564222855045,390,83.5,0.46428571428571,0.46428571428571,0
2.7074556604473e-06,0.00017985449195336,391,83.5,0.5,0.46428571428571,0
-1.4600389604296e-05,0.00017991526281906,392,83.5,0.53571428571429,0.46428571428571,0
-3.2809745837342e-05,0.00018592382957363,393,83.5,0.57142857142857,0.46428571428571,0
-5.2713637821242e-05,0.00019758437174516,394,83.5,0.60714285714286,0.46428571428571,0
-7.4381406128858e-05,0.00021381186544665,395,83.5,0.64285714285714,0.46428571428571,0
-9.7660296815262e-05,0.0002331860316995,396,83.5,0.67857142857143,0.46428571428571,0
-0.00012234140133023,0.00025462094399003,397,83.5,0.71428571428571,0.46428571428571,0
-0.00014811091885023,0.00027721704149612,398,83.5,0.75,0.46428571428571,0
-0.000174842644024,0.0002997448007776,399,83.5,0.78571428571429,0.46428571428571,0
-0.00020289831890226,0.00032128456672749,400,83.5,0.82142857142857,0.46428571428571,0
-0.00023243036475134,0.00034190376268408,401,83.5,0.85714285714286,0.46428571428571,0
-0.00026272511933111,0.00036236560164794,402,83.5,0.89285714285714,0.46428571428571,0
-0.00029287619705123,0.00038320768048308,403,83.5,0.92857142857143,0.46428571428571,0
-0.00032206654151814,0.00040497630346275,404,83.5,0.96428571428571,0.46428571428571,0
-0.00034961108561982,0.00042819299498792,405,83.5,1,0.46428571428571,0
0.00035554973008682,0.00047558754797625,406,83.5,0.035714285714286,0.5,0
0.00038049259155109,0.00050289606835968,407,83.5,0,0.5,0
0.00033095780029146,0.00044790110705102,408,83.5,0.071428571428571,0.5,0
0.00030634670080541,0.00042027247341575,409,83.5,0.10714285714286,0.5,0
0.00028118588795664,0.00039331679582731,410,83.5,0.14285714285714,0.5,0
0.00025502417921641,0.00036763622987822,411,83.5,0.17857142857143,0.5,0
0.00022764664262069,0.00034362347498594,412,83.5,0.21428571428571,0.5,0
0.00019905272222416,0.00032149104556302,413,83.5,0.25,0.5,0
0.00016922089003599,0.00030139703308689,414,83.5,0.28571428571429,0.5,0
0.0001389114291165,0.00028327624957464,415,83.5,0.32142857142857,0.5,0
0.00011011412378104,0.0002652369357916,416,83.5,0.35714285714286,0.5,0
8.2513605116043e-05,0.00024694377730621,417,83.5,0.39285714285714,0.5,0
5.5792421232823e-05,0.00023007553926379,418,83.5,0.42857142857143,0.5,0
3.0266193432811e-05,0.00021735118145409,419,83.5,0.46428571428571,0.5,0
6.0111577016789e-06,0.0002107135386687,420,83.5,0.5,0.5,0
-1.8198146940975e-05,0.00021081448496239,421,83.5,0.53571428571429,0.5,0
-4.2675197759293e-05,0.00021782864188247,422,83.5,0.57142857142857,0.5,0
-6.7652049925225e-05,0.00023060861344896,423,83.5,0.60714285714286,0.5,0
-9.303832907717e-05,0.00024782213217279,424,83.5,0.64285714285714,0.5,0
-0.00011875356876537,0.00026812470974166,425,83.5,0.67857142857143,0.5,0
-0.00014476301244066,0.00029033236659728,426,83.5,0.71428571428571,0.5,0
-0.00017095246271264,0.00031344112695916,427,83.5,0.75,0.5,0
-0.00019743082444919,0.00033672721583154,428,83.5,0.78571428571429,0.5,0
-0.00022467039757018,0.00035962289844704,429,83.5,0.82142857142857,0.5,0
-0.00025315121697399,0.00038165591498757,430,83.5,0.85714285714286,0.5,0
-0.00028287109472941,0.00040279140807223,431,83.5,0.89285714285714,0.5,0
-0.00031321236725294,0.000423479196121,432,83.5,0.92857142857143,0.5,0
-0.00034340403181019,0.00044428576436824,433,83.5,0.96428571428571,0.5,0
-0.00037272660570584,0.00046590694468873,434,83.5,1,0.5,0
0.00038330516861831,0.00051013109739079,435,83.5,0.035714285714286,0.53571428571429,0
0.00040776067186822,0.00053769531147294,436,83.5,0,0.53571428571429,0
0.00035861660209169,0.00048257656184045,437,83.5,0.071428571428571,0.53571428571429,0
0.00033320400977021,0.00045560926972663,438,83.5,0.10714285714286,0.53571428571429,0
0.00030664514346067,0.0004297692745898,439,83.5,0.14285714285714,0.53571428571429,0
0.00027872391585276,0.00040541171112553,440,83.5,0.17857142857143,0.53571428571429,0
0.00024944273419264,0.0003827119466273,441,83.5,0.21428571428571,0.53571428571429,0
0.0002189626723999,0.0003617068324158,442,83.5,0.25,0.53571428571429,0
0.00018801527169299,0.00034215230281475,443,83.5,0.28571428571429,0.53571428571429,0
0.00015798702986542,0.00032284000493726,444,83.5,0.32142857142857,0.53571428571429,0
0.00012893229773285,0.00030351318489967,445,83.5,0.35714285714286,0.53571428571429,0
0.00010022279889837,0.00028497946328107,446,83.5,0.39285714285714,0.53571428571429,0
7.0822703996568e-05,0.00026833291683571,447,83.5,0.42857142857143,0.53571428571429,0
4.0371225655743e-05,0.00025543566344883,448,83.5,0.46428571428571,0.53571428571429,0
9.2440356087479e-06,0.00024855004101103,449,83.5,0.5,0.53571428571429,0
-2.1825914577729e-05,0.00024872274257066,450,83.5,0.53571428571429,0.53571428571429,0
-5.2572551838383e-05,0.00025553118287898,451,83.5,0.57142857142857,0.53571428571429,0
-8.252732458203e-05,0.00026807034914361,452,83.5,0.60714285714286,0.53571428571429,0
-0.00011159547367661,0.00028495727804244,453,83.5,0.64285714285714,0.53571428571429,0
-0.0001397771129779,0.00030495849224221,454,83.5,0.67857142857143,0.53571428571429,0
-0.00016715519194133,0.00032690593455546,455,83.5,0.71428571428571,0.53571428571429,0
-0.00019400808477488,0.00034991704417827,456,83.5,0.75,0.53571428571429,0
-0.00022071699969522,0.00037346579256386,457,83.5,0.78571428571429,0.53571428571429,0
-0.00024766751680806,0.00039711509413851,458,83.5,0.82142857142857,0.53571428571429,0
-0.00027528060526181,0.00042031426188648,459,83.5,0.85714285714286,0.53571428571429,0
-0.00030391357311731,0.00044258730794452,460,83.5,0.89285714285714,0.53571428571429,0
-0.00033360153357665,0.00046388574673101,461,83.5,0.92857142857143,0.53571428571429,0
-0.00036394484746373,0.00048462859117043,462,83.5,0.96428571428571,0.53571428571429,0
-0.00039431858924014,0.00050547354846123,463,83.5,1,0.53571428571429,0
0.00041075930470692,0.00054472122201062,464,83.5,0.035714285714286,0.57142857142857,0
0.00043520260320167,0.00057193066965324,465,83.5,0,0.57142857142857,0
0.00038539938822627,0.00051801155173992,466,83.5,0.071428571428571,0.57142857142857,0
0.00035874427482668,0.00049230249656178,467,83.5,0.10714285714286,0.57142857142857,0
0.00033060654958204,0.0004679169144913,468,83.5,0.14285714285714,0.57142857142857,0
0.00030101993731839,0.00044498224373922,469,83.5,0.17857142857143,0.57142857142857,0
0.00027024001379552,0.00042343917273609,470,83.5,0.21428571428571,0.57142857142857,0
0.0002389350289168,0.0004029670897202,471,83.5,0.25,0.57142857142857,0
0.00020810270293786,0.00038273851356058,472,83.5,0.28571428571429,0.57142857142857,0
0.00017789122682302,0.00036254705588032,473,83.5,0.32142857142857,0.57142857142857,0
0.00014777542272666,0.00034306426658373,474,83.5,0.35714285714286,0.57142857142857,0
0.000116813332764,0.00032531633115043,475,83.5,0.39285714285714,0.57142857142857,0
8.4158011776526e-05,0.00031037916065599,476,83.5,0.42857142857143,0.57142857142857,0
4.9192940736085e-05,0.00029928244200809,477,83.5,0.46428571428571,0.57142857142857,0
1.2387964848676e-05,0.00029318919481875,478,83.5,0.5,0.57142857142857,0
-2.4908408025298e-05,0.00029303032924684,479,83.5,0.53571428571429,0.57142857142857,0
-6.1289335055903e-05,0.00029883929987545,480,83.5,0.57142857142857,0.57142857142857,0
-9.6062491008845e-05,0.0003098944625508,481,83.5,0.60714285714286,0.57142857142857,0
-0.0001288470017881,0.00032527136965899,482,83.5,0.64285714285714,0.57142857142857,0
-0.00015967702058132,0.00034384567658307,483,83.5,0.67857142857143,0.57142857142857,0
-0.00018885150912801,0.00036468457479247,484,83.5,0.71428571428571,0.57142857142857,0
-0.00021685591760346,0.00038706341495121,485,83.5,0.75,0.57142857142857,0
-0.00024419342596435,0.00041041498304959,486,83.5,0.78571428571429,0.57142857142857,0
-0.00027126979953588,0.00043424154410825,487,83.5,0.82142857142857,0.57142857142857,0
-0.00029845836139254,0.00045804245438812,488,83.5,0.85714285714286,0.57142857142857,0
-0.00032619800189136,0.00048130655391232,489,83.5,0.89285714285714,0.57142857142857,0
-0.00035489069800719,0.00050367425678421,490,83.5,0.92857142857143,0.57142857142857,0
-0.00038465832336657,0.00052514646540545,491,83.5,0.96428571428571,0.57142857142857,0
-0.00041519170314741,0.00054609607592778,492,83.5,1,0.57142857142857,0
0.00043718721295727,0.00057993802949304,493,83.5,0.035714285714286,0.60714285714286,0
0.00046218719805655,0.00060610463392537,494,83.5,0,0.60714285714286,0
0.00041073049801435,0.00055464660290935,495,83.5,0.071428571428571,0.60714285714286,0
0.00038266526347357,0.00053051559661687,496,83.5,0.10714285714286,0.60714285714286,0
0.00035307579188317,0.00050763203585677,497,83.5,0.14285714285714,0.60714285714286,0
0.00032228211286102,0.00048587981237553,498,83.5,0.17857142857143,0.60714285714286,0
0.00029089283811159,0.00046491749960523,499,83.5,0.21428571428571,0.60714285714286,0
0.00025965008271138,0.00044415274940779,500,83.5,0.25,0.60714285714286,0
0.00022869655644334,0.00042343835772048,501,83.5,0.28571428571429,0.60714285714286,0
0.0001975611771992,0.00040333632520888,502,83.5,0.32142857142857,0.60714285714286,0
0.00016539882915327,0.00038481148876306,503,83.5,0.35714285714286,0.60714285714286,0
0.00013141091055337,0.00036888582927164,504,83.5,0.39285714285714,0.60714285714286,0
9.496062155388e-05,0.00035638601514396,505,83.5,0.42857142857143,0.60714285714286,0
5.5947473176054e-05,0.00034775389271577,506,83.5,0.46428571428571,0.60714285714286,0
1.4861079823813e-05,0.00034313677810648,507,83.5,0.5,0.60714285714286,0
-2.7032910825122e-05,0.00034281279751202,508,83.5,0.53571428571429,0.60714285714286,0
-6.8167375790232e-05,0.00034711912290097,509,83.5,0.57142857142857,0.60714285714286,0
-0.00010727883407299,0.00035598913916155,510,83.5,0.60714285714286,0.60714285714286,0
-0.00014380236887874,0.00036889978898542,511,83.5,0.64285714285714,0.60714285714286,0
-0.00017765712580395,0.0003852140799524,512,83.5,0.67857142857143,0.60714285714286,0
-0.00020919127768777,0.0004042475212939,513,83.5,0.71428571428571,0.60714285714286,0
-0.00023891255431399,0.00042537222077026,514,83.5,0.75,0.60714285714286,0
-0.00026734053070489,0.00044796283651362,515,83.5,0.78571428571429,0.60714285714286,0
-0.00029495231672792,0.00047144420022041,516,83.5,0.82142857142857,0.60714285714286,0
-0.00032219046694389,0.00049532385434777,517,83.5,0.85714285714286,0.60714285714286,0
-0.00034951444962511,0.00051915653473147,518,83.5,0.89285714285714,0.60714285714286,0
-0.00037741471712445,0.0005425175364872,519,83.5,0.92857142857143,0.60714285714286,0
-0.00040627946135011,0.00056509262054767,520,83.5,0.96428571428571,0.60714285714286,0
-0.00043619156149275,0.00058681282155841,521,83.5,1,0.60714285714286,0
0.00046203766449405,0.00061621910344174,522,83.5,0.035714285714286,0.64285714285714,0
0.00048803245809566,0.00064081722348336,523,83.5,0,0.64285714285714,0
0.00043432368933687,0.00059263404721094,524,83.5,0.071428571428571,0.64285714285714,0
0.00040500792607855,0.00057008821361967,525,83.5,0.10714285714286,0.64285714285714,0
0.0003744507160235,0.00054842472713312,526,83.5,0.14285714285714,0.64285714285714,0
0.00034321737176069,0.00052731839167536,527,83.5,0.17857142857143,0.64285714285714,0
0.00031188548635165,0.00050634368522133,528,83.5,0.21428571428571,0.64285714285714,0
0.00028056088536755,0.00048542283369943,529,83.5,0.25,0.64285714285714,0
0.00024880650256444,0.0004650500934515,530,83.5,0.28571428571429,0.64285714285714,0
0.00021584394176581,0.00044610366500577,531,83.5,0.32142857142857,0.64285714285714,0
0.0001809072537381,0.00042953339749173,532,83.5,0.35714285714286,0.64285714285714,0
0.00014342295985064,0.00041612187772936,533,83.5,0.39285714285714,0.64285714285714,0
0.00010326745428671,0.00040627237655222,534,83.5,0.42857142857143,0.64285714285714,0
6.0735264070914e-05,0.00039992991141605,535,83.5,0.46428571428571,0.64285714285714,0
1.65063104176e-05,0.00039677085102173,536,83.5,0.5,0.64285714285714,0
-2.8494893299003e-05,0.00039657954082554,537,83.5,0.53571428571429,0.64285714285714,0
-7.3019617329374e-05,0.00039953742950039,538,83.5,0.57142857142857,0.64285714285714,0
-0.00011578516242235,0.00040598356364626,539,83.5,0.60714285714286,0.64285714285714,0
-0.00015590314937973,0.00041604144909043,540,83.5,0.64285714285714,0.64285714285714,0
-0.0001931042365952,0.00042955517398815,541,83.5,0.67857142857143,0.64285714285714,0
-0.00022751319452939,0.0004461814059202,542,83.5,0.71428571428571,0.64285714285714,0
-0.00025950716985257,0.00046539175990786,543,83.5,0.75,0.64285714285714,0
-0.00028956811537512,0.00048658905623431,544,83.5,0.78571428571429,0.64285714285714,0
-0.00031822517434747,0.00050918784227251,545,83.5,0.82142857142857,0.64285714285714,0
-0.00034601059330497,0.00053267807027147,546,83.5,0.85714285714286,0.64285714285714,0
-0.00037343018264281,0.00055661839274062,547,83.5,0.89285714285714,0.64285714285714,0
-0.00040096068813553,0.00058057467007151,548,83.5,0.92857142857143,0.64285714285714,0
-0.00042903400180491,0.00060409711598599,549,83.5,0.96428571428571,0.64285714285714,0
-0.00045794552826365,0.00062680873371628,550,83.5,1,0.64285714285714,0
0.00048507175742326,0.00065372774520655,551,83.5,0.035714285714286,0.67857142857143,0
0.00051223225182584,0.00067652681028259,552,83.5,0,0.67857142857143,0
0.00045626359057287,0.00063179748274256,553,83.5,0.071428571428571,0.67857142857143,0
0.00042617982916992,0.00061052149285218,554,83.5,0.10714285714286,0.67857142857143,0
0.00039533511472041,0.00058958771398648,555,83.5,0.14285714285714,0.67857142857143,0
0.00036418775586719,0.00056869080483827,556,83.5,0.17857142857143,0.67857142857143,0
0.00033280290735969,0.00054783259740267,557,83.5,0.21428571428571,0.67857142857143,0
0.000300771298092,0.00052747956393544,558,83.5,0.25,0.67857142857143,0
0.00026737226161051,0.00050843565008849,559,83.5,0.28571428571429,0.67857142857143,0
0.00023187305593357,0.00049157702688672,560,83.5,0.32142857142857,0.67857142857143,0
0.00019373511533281,0.00047762449665596,561,83.5,0.35714285714286,0.67857142857143,0
0.00015282286041255,0.00046695707755818,562,83.5,0.39285714285714,0.67857142857143,0
0.00010940579020758,0.00045954415596459,563,83.5,0.42857142857143,0.67857142857143,0
6.4073682110509e-05,0.0004550332491432,564,83.5,0.46428571428571,0.67857142857143,0
1.7513934712451e-05,0.00045295057774168,565,83.5,0.5,0.67857142857143,0
-2.9535658885955e-05,0.00045293663361248,566,83.5,0.53571428571429,0.67857142857143,0
-7.6273771371294e-05,0.00045494849944447,567,83.5,0.57142857142857,0.67857142857143,0
-0.00012175473065516,0.00045934847159838,568,83.5,0.60714285714286,0.67857142857143,0
-0.00016508010901192,0.00046665743835265,569,83.5,0.64285714285714,0.67857142857143,0
-0.00020564249782609,0.0004772027319665,570,83.5,0.67857142857143,0.67857142857143,0
-0.00024324229041187,0.00049097210813095,571,83.5,0.71428571428571,0.67857142857143,0
-0.00027799436562459,0.00050768234895346,572,83.5,0.75,0.67857142857143,0
-0.00031026322741272,0.00052687106270943,573,83.5,0.78571428571429,0.67857142857143,0
-0.00034055768105546,0.00054802317648636,574,83.5,0.82142857142857,0.67857142857143,0
-0.0003694402485773,0.00057062541031524,575,83.5,0.85714285714286,0.67857142857143,0
-0.00039744702358903,0.00059418768293653,576,83.5,0.89285714285714,0.67857142857143,0
-0.00042504872512549,0.00061822470471419,577,83.5,0.92857142857143,0.67857142857143,0
-0.00045265626310387,0.00064222803559185,578,83.5,0.96428571428571,0.67857142857143,0
-0.0004806217472927,0.00066568643140525,579,83.5,1,0.67857142857143,0
0.00050642215145535,0.00069229042873527,580,83.5,0.035714285714286,0.71428571428571,0
0.00053456838929362,0.00071339141537661,581,83.5,0,0.71428571428571,0
0.00047698411843752,0.00067165601677299,582,83.5,0.071428571428571,0.71428571428571,0
0.00044673042449424,0.00065118124062504,583,83.5,0.10714285714286,0.71428571428571,0
0.00041601656984763,0.0006306410662716,584,83.5,0.14285714285714,0.71428571428571,0
0.00038485065899483,0.00061009925080615,585,83.5,0.17857142857143,0.71428571428571,0
0.00035283563736363,0.00059001608350694,586,83.5,0.21428571428571,0.71428571428571,0
0.00031930475514563,0.00057114394725413,587,83.5,0.25,0.71428571428571,0
0.00028356867158556,0.00055429841402604,588,83.5,0.28571428571429,0.71428571428571,0
0.00024512077277908,0.00054014499684279,589,83.5,0.32142857142857,0.71428571428571,0
0.00020381442378648,0.00052903220807484,590,83.5,0.35714285714286,0.71428571428571,0
0.00015988620478486,0.00052093355559118,591,83.5,0.39285714285714,0.71428571428571,0
0.00011387736895883,0.00051552314755873,592,83.5,0.42857142857143,0.71428571428571,0
6.6440293010289e-05,0.00051233721275588,593,83.5,0.46428571428571,0.71428571428571,0
1.8217509168834e-05,0.00051092651804313,594,83.5,0.5,0.71428571428571,0
-3.0242583070664e-05,0.00051096256252993,595,83.5,0.53571428571429,0.71428571428571,0
-7.8434359742523e-05,0.00051234853981238,596,83.5,0.57142857142857,0.71428571428571,0
-0.00012580441555173,0.00051531700252091,597,83.5,0.60714285714286,0.71428571428571,0
-0.00017164935352841,0.00052039651542441,598,83.5,0.64285714285714,0.71428571428571,0
-0.00021523861291644,0.00052815119265162,599,83.5,0.67857142857143,0.71428571428571,0
-0.00025603947779675,0.00053891979916793,600,83.5,0.71428571428571,0.71428571428571,0
-0.0002938666791235,0.00055273933227167,601,83.5,0.75,0.71428571428571,0
-0.00032885446907011,0.000569407829275,602,83.5,0.78571428571429,0.71428571428571,0
-0.00036137678130787,0.00058855356503995,603,83.5,0.82142857142857,0.71428571428571,0
-0.00039192602844753,0.00060970463456937,604,83.5,0.85714285714286,0.71428571428571,0
-0.00042101495489576,0.0006323311909522,605,83.5,0.89285714285714,0.71428571428571,0
-0.00044911377366344,0.00065588002956507,606,83.5,0.92857142857143,0.71428571428571,0
-0.00047663323582812,0.00067978778335075,607,83.5,0.96428571428571,0.71428571428571,0
-0.00050393326279214,0.00070348704019035,608,83.5,1,0.71428571428571,0
0.00052652202727622,0.00073142432008991,609,83.5,0.035714285714286,0.75,0
0.00055513868893332,0.00075117392621848,610,83.5,0,0.75,0
0.00049700992548706,0.00071164124254379,611,83.5,0.071428571428571,0.75,0
0.00046691848250864,0.00069169186099034,612,83.5,0.10714285714286,0.75,0
0.00043620704708077,0.00067170122283317,613,83.5,0.14285714285714,0.75,0
0.00040447113048175,0.00065212635811024,614,83.5,0.17857142857143,0.75,0
0.00037107704890837,0.000633670974446,615,83.5,0.21428571428571,0.75,0
0.00033537716606953,0.0006170974139431,616,83.5,0.25,0.75,0
0.00029690096025382,0.00060302682691552,617,83.5,0.28571428571429,0.75,0
0.00025550399530437,0.00059178547557876,618,83.5,0.32142857142857,0.75,0
0.00021139658457657,0.0005833493361031,619,83.5,0.35714285714286,0.75,0
0.00016507227411697,0.00057740762246148,620,83.5,0.39285714285714,0.75,0
0.00011714638016336,0.00057351184384027,621,83.5,0.42857142857143,0.75,0
6.8230798978941e-05,0.0005712170814207,622,83.5,0.46428571428571,0.75,0
1.8839153286733e-05,0.00057016995070972,623,83.5,0.5,0.75,0
-3.0628416825179e-05,0.00057014973085447,624,83.5,0.53571428571429,0.75,0
-7.9864709219503e-05,0.00057109319797585,625,83.5,0.57142857142857,0.75,0
-0.00012854218164163,0.00057313019783241,626,83.5,0.60714285714286,0.75,0
-0.00017619968934855,0.00057661183527415,627,83.5,0.64285714285714,0.75,0
-0.00022220522261285,0.0005820683702188,628,83.5,0.67857142857143,0.75,0
-0.00026590918843543,0.00059003770427408,629,83.5,0.71428571428571,0.75,0
-0.00030685185187505,0.00060088226130867,630,83.5,0.75,0.75,0
-0.00034487722611498,0.00061470264294099,631,83.5,0.78571428571429,0.75,0
-0.00038010344940667,0.00063134850630658,632,83.5,0.82142857142857,0.75,0
-0.00041284426379861,0.0006504563613635,633,83.5,0.85714285714286,0.75,0
-0.00044351273256909,0.0006715193864513,634,83.5,0.89285714285714,0.75,0
-0.00047254863577809,0.00069395297851434,635,83.5,0.92857142857143,0.75,0
-0.00050037004173837,0.00071714551546847,636,83.5,0.96428571428571,0.75,0
-0.00052735009267741,0.00074048077083294,637,83.5,1,0.75,0
0.00054581337771061,0.0007705434037064,638,83.5,0.035714285714286,0.78571428571429,0
0.00057425723734916,0.00078926771753217,639,83.5,0,0.78571428571429,0
0.00051655876831444,0.00075143417430656,640,83.5,0.071428571428571,0.78571428571429,0
0.00048649306580557,0.00073219660129338,641,83.5,0.10714285714286,0.78571428571429,0
0.00045524340772212,0.00071333269823064,642,83.5,0.14285714285714,0.78571428571429,0
0.00042221222323264,0.0006955175579518,643,83.5,0.17857142857143,0.78571428571429,0
0.00038678562874798,0.00067945758887488,644,83.5,0.21428571428571,0.78571428571429,0
0.00034852059874626,0.00066572537004882,645,83.5,0.25,0.78571428571429,0
0.00030728028563894,0.00065462527308117,646,83.5,0.28571428571429,0.78571428571429,0
0.00026326078816607,0.00064614036962194,647,83.5,0.32142857142857,0.78571428571429,0
0.00021692136736804,0.00063998086211445,648,83.5,0.35714285714286,0.78571428571429,0
0.00016884204826125,0.00063571384393542,649,83.5,0.39285714285714,0.78571428571429,0
0.00011960125697669,0.0006328990930408,650,83.5,0.42857142857143,0.78571428571429,0
6.9689617464671e-05,0.0006311798017838,651,83.5,0.46428571428571,0.78571428571429,0
1.9486645908645e-05,0.00063032098114544,652,83.5,0.5,0.78571428571429,0
-3.07367205838e-05,0.00063020680029042,653,83.5,0.53571428571429,0.78571428571429,0
-8.0768578080406e-05,0.00063081820029941,654,83.5,0.57142857142857,0.78571428571429,0
-0.00013039596053156,0.00063222360964586,655,83.5,0.60714285714286,0.78571428571429,0
-0.00017932102774936,0.00063461906669933,656,83.5,0.64285714285714,0.78571428571429,0
-0.00022710561282348,0.0006383810095697,657,83.5,0.67857142857143,0.78571428571429,0
-0.00027318069558485,0.00064404193778555,658,83.5,0.71428571428571,0.78571428571429,0
-0.00031697152361343,0.00065213951496607,659,83.5,0.75,0.78571428571429,0
-0.00035805224429338,0.0006630406514164,660,83.5,0.78571428571429,0.78571428571429,0
-0.00039623482243074,0.00067684256902631,661,83.5,0.82142857142857,0.78571428571429,0
-0.00043156378690356,0.0006933716027738,662,83.5,0.85714285714286,0.78571428571429,0
-0.00046426958433487,0.00071223035030417,663,83.5,0.89285714285714,0.78571428571429,0
-0.00049469572734628,0.00073287653242648,664,83.5,0.92857142857143,0.78571428571429,0
-0.00052323038706632,0.0007546868760047,665,83.5,0.96428571428571,0.78571428571429,0
-0.00055024565161823,0.0007769976628203,666,83.5,1,0.78571428571429,0
0.00056437078435414,0.00080925648688388,667,83.5,0.035714285714286,0.82142857142857,0
0.00059217329216372,0.00082692309996799,668,83.5,0,0.82142857142857,0
0.00053533221628751,0.00079114235394941,669,83.5,0.071428571428571,0.82142857142857,0
0.00050481777361746,0.00077323054419241,670,83.5,0.10714285714286,0.82142857142857,0
0.00047234568757044,0.00075625752775715,671,83.5,0.14285714285714,0.82142857142857,0
0.00043738222888498,0.00074092237686416,672,83.5,0.17857142857143,0.82142857142857,0
0.00039952638228235,0.000727762626088,673,83.5,0.21428571428571,0.82142857142857,0
0.00035865021227555,0.00071705348623052,674,83.5,0.25,0.82142857142857,0
0.00031493705856739,0.00070877567322368,675,83.5,0.28571428571429,0.82142857142857,0
0.00026882045816878,0.00070266047754966,676,83.5,0.32142857142857,0.82142857142857,0
0.00022085468996833,0.00069829966815168,677,83.5,0.35714285714286,0.82142857142857,0
0.00017159246013982,0.00069526701087615,678,83.5,0.39285714285714,0.82142857142857,0
0.00012150183603383,0.00069320660935188,679,83.5,0.42857142857143,0.82142857142857,0
7.0941617472849e-05,0.0006918730653915,680,83.5,0.46428571428571,0.82142857142857,0
2.0168463362302e-05,0.0006911332821189,681,83.5,0.5,0.82142857142857,0
-3.0625418726991e-05,0.00069093957990149,682,83.5,0.53571428571429,0.82142857142857,0
-8.12782592096e-05,0.00069129488887617,683,83.5,0.57142857142857,0.82142857142857,0
-0.00013162467482976,0.00069224114852526,684,83.5,0.60714285714286,0.82142857142857,0
-0.00018146727486534,0.00069388876564641,685,83.5,0.64285714285714,0.82142857142857,0
-0.00023052504320335,0.00069647829906414,686,83.5,0.67857142857143,0.82142857142857,0
-0.00027838694191853,0.00070041659321748,687,83.5,0.71428571428571,0.82142857142857,0
-0.00032451704592613,0.00070622567902561,688,83.5,0.75,0.82142857142857,0
-0.00036835327866438,0.00071439736778119,689,83.5,0.78571428571429,0.82142857142857,0
-0.00040944426693561,0.00072524293903081,690,83.5,0.82142857142857,0.82142857142857,0
-0.00044754386250504,0.00073881384823663,691,83.5,0.85714285714286,0.82142857142857,0
-0.0004826280896311,0.00075490439580092,692,83.5,0.89285714285714,0.82142857142857,0
-0.00051486130948461,0.0007730949942935,693,83.5,0.92857142857143,0.82142857142857,0
-0.0005445211132549,0.00079280895114274,694,83.5,0.96428571428571,0.82142857142857,0
-0.00057191835788646,0.00081335905268212,695,83.5,1,0.82142857142857,0
0.00058171879120936,0.00084751474273446,696,83.5,0.035714285714286,0.85714285714286,0
0.00060874146554083,0.00086356996811837,697,83.5,0,0.85714285714286,0
0.00055259780767574,0.00083117511288812,698,83.5,0.071428571428571,0.85714285714286,0
0.00052108787479953,0.00081543435451969,699,83.5,0.10714285714286,0.85714285714286,0
0.00048683641155459,0.00080108882730013,700,83.5,0.14285714285714,0.85714285714286,0
0.00044957161397175,0.00078872481073355,701,83.5,0.17857142857143,0.85714285714286,0
0.00040922816402637,0.00077863326317521,702,83.5,0.21428571428571,0.85714285714286,0
0.00036599912292238,0.00077079985019362,703,83.5,0.25,0.85714285714286,0
0.00032029855709719,0.00076496920430853,704,83.5,0.28571428571429,0.85714285714286,0
0.00027265718882797,0.00076075404772053,705,83.5,0.32142857142857,0.85714285714286,0
0.00022360876353476,0.00075774906092951,706,83.5,0.35714285714286,0.85714285714286,0
0.00017360722533222,0.00075561115936669,707,83.5,0.39285714285714,0.85714285714286,0
0.0001229967727923,0.00075409545379253,708,83.5,0.42857142857143,0.85714285714286,0
7.2019270493409e-05,0.00075305681468276,709,83.5,0.46428571428571,0.85714285714286,0
2.0849874787028e-05,0.00075242843853689,710,83.5,0.5,0.85714285714286,0
-3.0368098513583e-05,0.00075219234071814,711,83.5,0.53571428571429,0.85714285714286,0
-8.1498029421825e-05,0.00075235807977242,712,83.5,0.57142857142857,0.85714285714286,0
-0.00013240425023764,0.00075296005578199,713,83.5,0.60714285714286,0.85714285714286,0
-0.0001829410110796,0.0007540755083892,714,83.5,0.64285714285714,0.85714285714286,0
-0.00023292248602155,0.00075585766793539,715,83.5,0.67857142857143,0.85714285714286,0
-0.00028206513619996,0.00075857391418216,716,83.5,0.71428571428571,0.85714285714286,0
-0.00032994234046754,0.00076261504125847,717,83.5,0.75,0.85714285714286,0
-0.00037600062988362,0.00076844117602973,718,83.5,0.78571428571429,0.85714285714286,0
-0.00041965816774676,0.0007764657386207,719,83.5,0.82142857142857,0.85714285714286,0
-0.0004604328910821,0.00078693511486727,720,83.5,0.85714285714286,0.85714285714286,0
-0.00049803067030467,0.00079985993069829,721,83.5,0.89285714285714,0.85714285714286,0
-0.00053235838165847,0.00081500130278273,722,83.5,0.92857142857143,0.85714285714286,0
-0.00056348530187425,0.00083188809218591,723,83.5,0.96428571428571,0.85714285714286,0
-0.00059157084754584,0.00084985779359767,724,83.5,1,0.85714285714286,0
0.00059693475501757,0.00088552109757761,725,83.5,0.035714285714286,0.89285714285714,0
0.00062330584577577,0.00089899995895637,726,83.5,0,0.89285714285714,0
0.00056740100860608,0.00087198117419116,727,83.5,0.071428571428571,0.89285714285714,0
0.0005345309728116,0.00085928430010384,728,83.5,0.10714285714286,0.89285714285714,0
0.00049825986507276,0.00084814187279037,729,83.5,0.14285714285714,0.89285714285714,0
0.00045869152898485,0.00083896066757317,730,83.5,0.17857142857143,0.89285714285714,0
0.00041612029712298,0.00083181134891666,731,83.5,0.21428571428571,0.89285714285714,0
0.00037099694746572,0.00082649217802731,732,83.5,0.25,0.89285714285714,0
0.00032385081075413,0.00082264717154379,733,83.5,0.28571428571429,0.89285714285714,0
0.00027520225424584,0.0008198907842829,734,83.5,0.32142857142857,0.89285714285714,0
0.00022549453297614,0.0008178951269703,735,83.5,0.35714285714286,0.89285714285714,0
0.00017506495871239,0.00081642620051906,736,83.5,0.39285714285714,0.89285714285714,0
0.0001241490505783,0.00081534125651034,737,83.5,0.42857142857143,0.89285714285714,0
7.2910257335002e-05,0.00081456564588336,738,83.5,0.46428571428571,0.89285714285714,0
2.1474238975987e-05,0.00081406590545649,739,83.5,0.5,0.89285714285714,0
-3.0043761839921e-05,0.00081383216949134,740,83.5,0.53571428571429,0.89285714285714,0
-8.1529577408997e-05,0.00081387431069787,741,83.5,0.57142857142857,0.89285714285714,0
-0.00013286792962598,0.0008142263791738,742,83.5,0.60714285714286,0.89285714285714,0
-0.00018393864232123,0.00081495199920797,743,83.5,0.64285714285714,0.89285714285714,0
-0.00023459549849605,0.00081615269790051,744,83.5,0.67857142857143,0.89285714285714,0
-0.00028462723119874,0.0008179866490028,745,83.5,0.71428571428571,0.89285714285714,0
-0.00033370870416057,0.00082069714195156,746,83.5,0.75,0.89285714285714,0
-0.00038137484824424,0.00082462175535678,747,83.5,0.78571428571429,0.89285714285714,0
-0.00042704909515883,0.00083014769711796,748,83.5,0.82142857142857,0.89285714285714,0
-0.00047013132615059,0.00083761330343749,749,83.5,0.85714285714286,0.89285714285714,0
-0.00051009909557025,0.00084719567000317,750,83.5,0.89285714285714,0.89285714285714,0
-0.00054657421512177,0.00085883434539385,751,83.5,0.92857142857143,0.89285714285714,0
-0.00057933509988364,0.00087220238873825,752,83.5,0.96428571428571,0.89285714285714,0
-0.00060830072374252,0.00088672635208768,753,83.5,1,0.89285714285714,0
0.00060889882297126,0.00092353232670768,754,83.5,0.035714285714286,0.92857142857143,0
0.00063485033885453,0.00093333056332898,755,83.5,0,0.92857142857143,0
0.00057878368722359,0.00091381622607455,756,83.5,0.071428571428571,0.92857142857143,0
0.00054452884933144,0.00090491105730362,757,83.5,0.10714285714286,0.92857142857143,0
0.0005064090385013,0.00089733776133655,758,83.5,0.14285714285714,0.92857142857143,0
0.00046490134190484,0.00089132656210765,759,83.5,0.17857142857143,0.92857142857143,0
0.00042060171804004,0.00088682672699784,760,83.5,0.21428571428571,0.92857142857143,0
0.00037412816229442,0.00088359259087373,761,83.5,0.25,0.92857142857143,0
0.0003260405741711,0.00088130163830853,762,83.5,0.28571428571429,0.92857142857143,0
0.00027679272025741,0.00087965574958639,763,83.5,0.32142857142857,0.92857142857143,0
0.00022672165076822,0.00087843512462036,764,83.5,0.35714285714286,0.92857142857143,0
0.00017606221946859,0.00087750593894636,765,83.5,0.39285714285714,0.92857142857143,0
0.00012497616154695,0.00087679903310198,766,83.5,0.42857142857143,0.92857142857143,0
7.3582182483831e-05,0.00087628053930227,767,83.5,0.46428571428571,0.92857142857143,0
2.1980518948435e-05,0.00087593170631544,768,83.5,0.5,0.92857142857143,0
-2.9734539161884e-05,0.00087574446500822,769,83.5,0.53571428571429,0.92857142857143,0
-8.1468183288531e-05,0.00087572729227757,770,83.5,0.57142857142857,0.92857142857143,0
-0.00013312117590668,0.00087591020528007,771,83.5,0.60714285714286,0.92857142857143,0
-0.00018458155679255,0.00087634285704543,772,83.5,0.64285714285714,0.92857142857143,0
-0.00023571223574953,0.00087708988909551,773,83.5,0.67857142857143,0.92857142857143,0
-0.0002863303170065,0.00087823630489498,774,83.5,0.71428571428571,0.92857142857143,0
-0.00033617726856685,0.00087991067624799,775,83.5,0.75,0.92857142857143,0
-0.00038488362071054,0.00088231455063676,776,83.5,0.78571428571429,0.92857142857143,0
-0.00043195012910087,0.00088572648588247,777,83.5,0.82142857142857,0.92857142857143,0
-0.00047676578970458,0.00089044987923138,778,83.5,0.85714285714286,0.92857142857143,0
-0.00051866905608835,0.00089671359982081,779,83.5,0.89285714285714,0.92857142857143,0
-0.00055702773881478,0.00090456974242035,780,83.5,0.92857142857143,0.92857142857143,0
-0.00059131498902488,0.00091383376220552,781,83.5,0.96428571428571,0.92857142857143,0
-0.00062116729201275,0.0009240857102461,782,83.5,1,0.92857142857143,0
0.00061656962522133,0.00096169774120641,783,83.5,0.035714285714286,0.96428571428571,0
0.00064231236082493,0.00096686896790105,784,83.5,0,0.96428571428571,0
0.00058595449982698,0.00095661689440607,785,83.5,0.071428571428571,0.96428571428571,0
0.00055067108505178,0.00095203088461244,786,83.5,0.10714285714286,0.96428571428571,0
0.00051126137665383,0.00094821063433171,787,83.5,0.14285714285714,0.96428571428571,0
0.00046847020540495,0.00094525305338662,788,83.5,0.17857142857143,0.96428571428571,0
0.00042308687818843,0.00094309738744862,789,83.5,0.21428571428571,0.96428571428571,0
0.00037581709963788,0.00094158348885678,790,83.5,0.25,0.96428571428571,0
0.00032721217543993,0.00094052343150808,791,83.5,0.28571428571429,0.96428571428571,0
0.00027765986360694,0.00093975696449958,792,83.5,0.32142857142857,0.96428571428571,0
0.00022741522245332,0.00093917629928387,793,83.5,0.35714285714286,0.96428571428571,0
0.00017664676872353,0.00093872374382751,794,83.5,0.39285714285714,0.96428571428571,0
0.0001254759273416,0.00093837379077656,795,83.5,0.42857142857143,0.96428571428571,0
7.4001856262559e-05,0.00093811379263275,796,83.5,0.46428571428571,0.96428571428571,0
2.2311690957688e-05,0.00093793424099127,797,83.5,0.5,0.96428571428571,0
-2.9514023621817e-05,0.00093783007076186,798,83.5,0.53571428571429,0.96428571428571,0
-8.1395214502059e-05,0.0009378064202004,799,83.5,0.57142857142857,0.96428571428571,0
-0.00013324164239647,0.00093788135957888,800,83.5,0.60714285714286,0.96428571428571,0
-0.00018494240902905,0.00093808261034921,801,83.5,0.64285714285714,0.96428571428571,0
-0.00023635761498351,0.0009384422877678,802,83.5,0.67857142857143,0.96428571428571,0
-0.00028731162423064,0.0009389969324693,803,83.5,0.71428571428571,0.96428571428571,0
-0.00033757882157492,0.00093979923221174,804,83.5,0.75,0.96428571428571,0
-0.00038685531524039,0.00094093910280842,805,83.5,0.78571428571429,0.96428571428571,0
-0.00043471722276433,0.00094255703681121,806,83.5,0.82142857142857,0.96428571428571,0
-0.00048058910761906,0.00094482733647614,807,83.5,0.85714285714286,0.96428571428571,0
-0.0005237513124337,0.00094790355954896,808,83.5,0.89285714285714,0.96428571428571,0
-0.00056340608013927,0.00095184961917382,809,83.5,0.92857142857143,0.96428571428571,0
-0.00059879022140982,0.00095659060741308,810,83.5,0.96428571428571,0.96428571428571,0
-0.00062930531692937,0.00096190447005104,811,83.5,1,0.96428571428571,0
0.00061921446838484,0.001,812,83.5,0.035714285714286,1,0
0.00064489761591634,0.001,813,83.5,0,1,0
0.00058840321279356,0.001,814,83.5,0.071428571428571,1,0
0.00055274025555321,0.001,815,83.5,0.10714285714286,1,0
0.0005128689645604,0.001,816,83.5,0.14285714285714,1,0
0.00046962988887243,0.001,817,83.5,0.17857142857143,1,0
0.00042387865950791,0.001,818,83.5,0.21428571428571,1,0
0.00037634704707326,0.001,819,83.5,0.25,1,0
0.00032757887131026,0.001,820,83.5,0.28571428571429,1,0
0.00027793479695311,0.001,821,83.5,0.32142857142857,1,0
0.00022763982753139,0.001,822,83.5,0.35714285714286,1,0
0.00017683957017545,0.001,823,83.5,0.39285714285714,1,0
0.00012564333138234,0.001,824,83.5,0.42857142857143,1,0
7.4144693700323e-05,0.001,825,83.5,0.46428571428571,1,0
2.2427110728208e-05,0.001,826,83.5,0.5,1,0
-2.9434273353128e-05,0.001,827,83.5,0.53571428571429,1,0
-8.136454518889e-05,0.001,828,83.5,0.57142857142857,1,0
-0.00013327659091129,0.001,829,83.5,0.60714285714286,1,0
-0.00018505889237468,0.001,830,83.5,0.64285714285714,1,0
-0.00023656939382524,0.001,831,83.5,0.67857142857143,1,0
-0.00028763289469189,0.001,832,83.5,0.71428571428571,1,0
-0.00033803384503277,0.001,833,83.5,0.75,1,0
-0.00038749047643554,0.001,834,83.5,0.78571428571429,1,0
-0.00043560883393719,0.001,835,83.5,0.82142857142857,1,0
-0.00048183285135854,0.001,836,83.5,0.85714285714286,1,0
-0.00052543061008576,0.001,837,83.5,0.89285714285714,1,0
-0.00056554794493368,0.001,838,83.5,0.92857142857143,1,0
-0.0006013325311814,0.001,839,83.5,0.96428571428571,1,0
-0.00063209373209841,0.001,840,83.5,1,1,0
